single conp dist compare full

dump arag_full

cell
    5.739   4.962  7.971   90.000  90.000  90.000
fractional    4
    Ca core    0.24030  0.25000   0.41510    2.00000
    C core     0.08500  0.25000   0.76270    0.99805
    O core     0.09520  0.25000   0.92310   -0.99935
    O core     0.08700  0.47290   0.68010   -0.99935
space
62

buck
Ca  O  8839.3  0.23813  0.0  0.0  10.0  0 0 0
buck
C   O  3088.4  0.12635  0.0  0.0  10.0  0 0 0
buck
O   O  36010.8  0.19756  0.0  0.0  10.0  0 0 0

three
C  O  O  9.3179  120.0  1.80  1.800  3.00  0 0
torsion
O  C  O  O  1.1392  -2  0 1.50  1.50  2.50  0.00  0

