&control
  title = '(null)',
  prefix = 'baso4',
  pseudo_dir='.',
/

&system
  ibrav = 0,
  nat = 24,
  ntyp = 3,
  ecutwfc =     75.0000,
/

&electrons
/

&ions
/

&cell
/

ATOMIC_SPECIES
Ba   137.326996 Ba.UPF
S     32.066002 S.UPF
O     15.999400 O.UPF

CELL_PARAMETERS (angstrom)
   8.950666000     0.000000000     0.000000000
  -0.000000000     5.452931000     0.000000000
  -0.000000000    -0.000000000     7.153354000

ATOMIC_POSITIONS (angstrom)
Ba            1.672507128     1.363232750     1.136557789
S             3.975872411     4.089698250     1.365309889
O             5.331457937     4.089698250     0.827734621
O             2.937889632     4.089698250     0.331522191
O             3.797279772     5.268032470     2.216916683
Ba            2.802825872     4.089698250     4.713234789
S             0.499460589     1.363232750     4.941986889
O            -0.856124937     1.363232750     4.404411621
O             1.537443368     1.363232750     3.908199191
O             0.678053227     0.184898530     5.793593683
Ba            6.147840128     1.363232750     2.440119211
S             8.451205411     4.089698250     2.211367111
O             9.806790937     4.089698250     2.748942379
O             7.413222632     4.089698250     3.245154809
O             8.272612772     2.911364030     1.359760317
Ba            7.278158872     4.089698250     6.016796211
S             4.974793589     1.363232750     5.788044111
O             3.619208063     1.363232750     6.325619379
O             6.012776368     1.363232750     6.821831809
O             5.153386227     2.541566970     4.936437317
O             5.153386227     0.184898530     4.936437317
O             8.272612772     5.268032470     1.359760317
O             0.678053227     2.541566970     5.793593683
O             3.797279772     2.911364030     2.216916683

