single conv mole

name calcite_-114_0.0000


svectors
4.980183  -0.000000
-4.980185  -24.270662
sfractional region 1
Ca   core   0.085960   0.085960  -6.067331  2.00000000 1.00000 0.00000
C    core   0.042980   0.042980  -3.033665  1.34353899 1.00000 0.00000
O    core   0.201220   0.074893  -3.800132  1.01848700 1.00000 0.00000
O    shel   0.201586   0.074967  -3.801902 -2.1330000 1.00000 0.00000
O    core  -0.209674   0.042980  -3.033665  1.01848700 1.00000 0.00000
O    shel  -0.210258   0.042980  -3.033665 -2.1330000 1.00000 0.00000
O    core   0.137393   0.011066  -2.267197  1.01848700 1.00000 0.00000
O    shel   0.137611   0.010993  -2.265427 -2.1330000 1.00000 0.00000
O    core   0.051406   0.177733  -2.267198  1.01848700 1.00000 0.00000
O    shel   0.051041   0.177659  -2.265427 -2.1330000 1.00000 0.00000
C    core   0.209647   0.209647  -3.033665  1.34353899 1.00000 0.00000
O    core   0.462301   0.209647  -3.033665  1.01848700 1.00000 0.00000
O    shel   0.462884   0.209647  -3.033665 -2.1330000 1.00000 0.00000
O    core   0.115233   0.241560  -3.800133  1.01848700 1.00000 0.00000
O    shel   0.115015   0.241634  -3.801903 -2.1330000 1.00000 0.00000
Ca   core   0.292980   0.792980  -3.033666  2.00000000 1.00000 0.00000
Ca   core   0.459646   0.959647  -3.033667  2.00000000 1.00000 0.00000
Ca   core   0.045606   0.545606  -9.100997  2.00000000 1.00000 0.00000
C    core   0.169293   0.669293  -6.067332  1.34353899 1.00000 0.00000
O    core   0.011053   0.637379  -5.300864  1.01848700 1.00000 0.00000
O    shel   0.010687   0.637306  -5.299094 -2.1330000 1.00000 0.00000
O    core   0.421947   0.669293  -6.067331  1.01848700 1.00000 0.00000
O    shel   0.422530   0.669293  -6.067331 -2.1330000 1.00000 0.00000
O    core   0.074880   0.701207  -6.833799  1.01848700 1.00000 0.00000
O    shel   0.074662   0.701280  -6.835569 -2.1330000 1.00000 0.00000
O    core   0.430373   0.804046  -5.300863  1.01848700 1.00000 0.00000
O    shel   0.430591   0.803972  -5.299092 -2.1330000 1.00000 0.00000
C    core   0.335960   0.835960  -6.067330  1.34353899 1.00000 0.00000
O    core   0.083306   0.835960  -6.067330  1.01848700 1.00000 0.00000
O    shel   0.082722   0.835960  -6.067330 -2.1330000 1.00000 0.00000
O    core   0.494200   0.867873  -6.833798  1.01848700 1.00000 0.00000
O    shel   0.494566   0.867947  -6.835568 -2.1330000 1.00000 0.00000
O    core  -0.069654   0.556673 -11.368194  1.01848700 1.00000 0.00000
O    shel  -0.070020   0.556599 -11.366424 -2.1330000 1.00000 0.00000
C    core   0.088586   0.588586 -12.134662  1.34353899 1.00000 0.00000
O    core   0.341240   0.588586 -12.134662  1.01848700 1.00000 0.00000
O    shel   0.341824   0.588586 -12.134662 -2.1330000 1.00000 0.00000
O    core  -0.005827   0.620500 -12.901129  1.01848700 1.00000 0.00000
O    shel  -0.006045   0.620573 -12.902899 -2.1330000 1.00000 0.00000
Ca   core   0.212273   0.712273  -9.100996  2.00000000 1.00000 0.00000
Ca   core   0.171920   0.171919 -12.134661  2.00000000 1.00000 0.00000
Ca   core   0.338586   0.338586 -12.134662  2.00000000 1.00000 0.00000
C    core   0.295606   0.295606  -9.100995  1.34353899 1.00000 0.00000
O    core   0.453847   0.327520  -9.867462  1.01848700 1.00000 0.00000
O    shel   0.454212   0.327593  -9.869232 -2.1330000 1.00000 0.00000
O    core   0.042952   0.295606  -9.100995  1.01848700 1.00000 0.00000
O    shel   0.042369   0.295606  -9.100995 -2.1330000 1.00000 0.00000
O    core   0.390020   0.263693  -8.334527  1.01848700 1.00000 0.00000
O    shel   0.390238   0.263619  -8.332757 -2.1330000 1.00000 0.00000
C    core   0.002626   0.502626  -6.067331  1.34353899 1.00000 0.00000
O    core   0.160867   0.534540  -6.833798  1.01848700 1.00000 0.00000
O    shel   0.161232   0.534614  -6.835568 -2.1330000 1.00000 0.00000
O    core   0.097040   0.470713  -5.300863  1.01848700 1.00000 0.00000
O    shel   0.097258   0.470639  -5.299093 -2.1330000 1.00000 0.00000
O    core  -0.250028   0.502626  -6.067331  1.01848700 1.00000 0.00000
O    shel  -0.250611   0.502626  -6.067331 -2.1330000 1.00000 0.00000
Ca   core   0.419293   0.419293  -6.067331  2.00000000 1.00000 0.00000
C    core   0.542980   0.542980  -3.033666  1.34353899 1.00000 0.00000
O    core   0.384739   0.511066  -2.267199  1.01848700 1.00000 0.00000
O    shel   0.384374   0.510993  -2.265428 -2.1330000 1.00000 0.00000
O    core   0.795634   0.542980  -3.033666  1.01848700 1.00000 0.00000
O    shel   0.796217   0.542980  -3.033666 -2.1330000 1.00000 0.00000
O    core   0.448566   0.574893  -3.800133  1.01848700 1.00000 0.00000
O    shel   0.448348   0.574967  -3.801903 -2.1330000 1.00000 0.00000
O    core   0.804060   0.677733  -2.267197  1.01848700 1.00000 0.00000
O    shel   0.804278   0.677659  -2.265427 -2.1330000 1.00000 0.00000
C    core   0.709647   0.709647  -3.033665  1.34353899 1.00000 0.00000
O    core   0.456993   0.709647  -3.033665  1.01848700 1.00000 0.00000
O    shel   0.456409   0.709647  -3.033665 -2.1330000 1.00000 0.00000
O    core   0.867887   0.741560  -3.800133  1.01848700 1.00000 0.00000
O    shel   0.868253   0.741634  -3.801903 -2.1330000 1.00000 0.00000
O    core   0.304032   0.430359  -8.334528  1.01848700 1.00000 0.00000
O    shel   0.303667   0.430286  -8.332758 -2.1330000 1.00000 0.00000
C    core   0.462273   0.462273  -9.100996  1.34353899 1.00000 0.00000
O    core   0.714927   0.462273  -9.100996  1.01848700 1.00000 0.00000
O    shel   0.715511   0.462273  -9.100996 -2.1330000 1.00000 0.00000
O    core   0.367859   0.494186  -9.867463  1.01848700 1.00000 0.00000
O    shel   0.367641   0.494260  -9.869234 -2.1330000 1.00000 0.00000
Ca   core   0.585960   0.585960  -6.067330  2.00000000 1.00000 0.00000
Ca   core   0.126313   0.626313  -3.033666  2.00000000 1.00000 0.00000
Ca   core   0.545606   0.045606  -9.100996  2.00000000 1.00000 0.00000
Ca   core   0.712273   0.212273  -9.100997  2.00000000 1.00000 0.00000
C    core   0.128940   0.128939  -9.100996  1.34353899 1.00000 0.00000
O    core  -0.029301   0.097026  -8.334528  1.01848700 1.00000 0.00000
O    shel  -0.029666   0.096952  -8.332758 -2.1330000 1.00000 0.00000
O    core   0.034526   0.160853  -9.867463  1.01848700 1.00000 0.00000
O    shel   0.034308   0.160927  -9.869234 -2.1330000 1.00000 0.00000
O    core   0.381594   0.128939  -9.100996  1.01848700 1.00000 0.00000
O    shel   0.382177   0.128939  -9.100996 -2.1330000 1.00000 0.00000
C    core   0.669293   0.169293  -6.067330  1.34353899 1.00000 0.00000
O    core   0.827534   0.201207  -6.833797  1.01848700 1.00000 0.00000
O    shel   0.827899   0.201280  -6.835567 -2.1330000 1.00000 0.00000
O    core   0.416639   0.169293  -6.067330  1.01848700 1.00000 0.00000
O    shel   0.416056   0.169293  -6.067330 -2.1330000 1.00000 0.00000
O    core   0.763707   0.137379  -5.300862  1.01848700 1.00000 0.00000
O    shel   0.763925   0.137306  -5.299092 -2.1330000 1.00000 0.00000
O    core   0.683000   0.056672 -11.368193  1.01848700 1.00000 0.00000
O    shel   0.683218   0.056599 -11.366423 -2.1330000 1.00000 0.00000
C    core   0.588586   0.088586 -12.134661  1.34353899 1.00000 0.00000
O    core   0.335932   0.088586 -12.134661  1.01848700 1.00000 0.00000
O    shel   0.335349   0.088586 -12.134661 -2.1330000 1.00000 0.00000
O    core   0.746827   0.120500 -12.901129  1.01848700 1.00000 0.00000
O    shel   0.747192   0.120573 -12.902899 -2.1330000 1.00000 0.00000
Ca   core   0.005253   0.005253 -12.134662  2.00000000 1.00000 0.00000
Ca   core   0.252626   0.252626  -6.067331  2.00000000 1.00000 0.00000
C    core   0.376313   0.376313  -3.033666  1.34353899 1.00000 0.00000
O    core   0.534554   0.408227  -3.800133  1.01848700 1.00000 0.00000
O    shel   0.534919   0.408300  -3.801903 -2.1330000 1.00000 0.00000
O    core   0.470727   0.344400  -2.267198  1.01848700 1.00000 0.00000
O    shel   0.470945   0.344326  -2.265428 -2.1330000 1.00000 0.00000
O    core   0.123659   0.376313  -3.033666  1.01848700 1.00000 0.00000
O    shel   0.123076   0.376313  -3.033666 -2.1330000 1.00000 0.00000
Ca   core   0.792980   0.292980  -3.033666  2.00000000 1.00000 0.00000
O    core   0.677719   0.304046  -5.300863  1.01848700 1.00000 0.00000
O    shel   0.677354   0.303972  -5.299093 -2.1330000 1.00000 0.00000
C    core   0.835960   0.335960  -6.067330  1.34353899 1.00000 0.00000
O    core   1.088614   0.335960  -6.067330  1.01848700 1.00000 0.00000
O    shel   1.089197   0.335960  -6.067330 -2.1330000 1.00000 0.00000
O    core   0.741546   0.367873  -6.833798  1.01848700 1.00000 0.00000
O    shel   0.741328   0.367947  -6.835568 -2.1330000 1.00000 0.00000
Ca   core   0.959647   0.459647  -3.033665  2.00000000 1.00000 0.00000
C    core   0.502626   0.002626  -6.067330  1.34353899 1.00000 0.00000
O    core   0.344386  -0.029287  -5.300862  1.01848700 1.00000 0.00000
O    shel   0.344020  -0.029361  -5.299092 -2.1330000 1.00000 0.00000
O    core   0.408213   0.034540  -6.833797  1.01848700 1.00000 0.00000
O    shel   0.407995   0.034614  -6.835568 -2.1330000 1.00000 0.00000
O    core   0.755280   0.002626  -6.067330  1.01848700 1.00000 0.00000
O    shel   0.755864   0.002626  -6.067330 -2.1330000 1.00000 0.00000
Ca   core   0.626313   0.126313  -3.033665  2.00000000 1.00000 0.00000
C    core   0.421919   0.921919 -12.134663  1.34353899 1.00000 0.00000
O    core   0.263679   0.890006 -11.368195  1.01848700 1.00000 0.00000
O    shel   0.263314   0.889932 -11.366425 -2.1330000 1.00000 0.00000
O    core   0.674573   0.921919 -12.134662  1.01848700 1.00000 0.00000
O    shel   0.675157   0.921919 -12.134662 -2.1330000 1.00000 0.00000
O    core   0.327506   0.953833 -12.901129  1.01848700 1.00000 0.00000
O    shel   0.327288   0.953907 -12.902899 -2.1330000 1.00000 0.00000
C    core   0.255253   0.755253 -12.134663  1.34353899 1.00000 0.00000
O    core   0.413493   0.787166 -12.901130  1.01848700 1.00000 0.00000
O    shel   0.413859   0.787240 -12.902900 -2.1330000 1.00000 0.00000
O    core   0.349666   0.723339 -11.368195  1.01848700 1.00000 0.00000
O    shel   0.349884   0.723266 -11.366425 -2.1330000 1.00000 0.00000
O    core   0.002599   0.755253 -12.134663  1.01848700 1.00000 0.00000
O    shel   0.002015   0.755253 -12.134663 -2.1330000 1.00000 0.00000
Ca   core   0.919293   0.919293  -6.067331  2.00000000 1.00000 0.00000
Ca   core   0.671920   0.671919 -12.134663  2.00000000 1.00000 0.00000
C    core   0.795606   0.795606  -9.100998  1.34353899 1.00000 0.00000
O    core   0.637366   0.763693  -8.334530  1.01848700 1.00000 0.00000
O    shel   0.637000   0.763619  -8.332760 -2.1330000 1.00000 0.00000
O    core   1.048260   0.795606  -9.100997  1.01848700 1.00000 0.00000
O    shel   1.048844   0.795606  -9.100997 -2.1330000 1.00000 0.00000
O    core   0.701193   0.827520  -9.867464  1.01848700 1.00000 0.00000
O    shel   0.700975   0.827593  -9.869234 -2.1330000 1.00000 0.00000
O    core   1.056686   0.930359  -8.334528  1.01848700 1.00000 0.00000
O    shel   1.056904   0.930286  -8.332758 -2.1330000 1.00000 0.00000
C    core   0.962273   0.962273  -9.100996  1.34353899 1.00000 0.00000
O    core   0.709619   0.962273  -9.100996  1.01848700 1.00000 0.00000
O    shel   0.709035   0.962273  -9.100996 -2.1330000 1.00000 0.00000
O    core   1.120513   0.994186  -9.867464  1.01848700 1.00000 0.00000
O    shel   1.120879   0.994260  -9.869234 -2.1330000 1.00000 0.00000
Ca   core   0.838586   0.838586 -12.134662  2.00000000 1.00000 0.00000
Ca   core   0.378940   0.878940  -9.100997  2.00000000 1.00000 0.00000
C    core   0.921920   0.421919 -12.134660  1.34353899 1.00000 0.00000
O    core   1.080160   0.453833 -12.901127  1.01848700 1.00000 0.00000
O    shel   1.080526   0.453907 -12.902897 -2.1330000 1.00000 0.00000
O    core   0.669266   0.421919 -12.134660  1.01848700 1.00000 0.00000
O    shel   0.668682   0.421919 -12.134660 -2.1330000 1.00000 0.00000
O    core   1.016333   0.390006 -11.368192  1.01848700 1.00000 0.00000
O    shel   1.016551   0.389932 -11.366422 -2.1330000 1.00000 0.00000
Ca   core   0.505253   0.505253 -12.134662  2.00000000 1.00000 0.00000
C    core   0.628940   0.628940  -9.100996  1.34353899 1.00000 0.00000
O    core   0.787180   0.660853  -9.867464  1.01848700 1.00000 0.00000
O    shel   0.787546   0.660927  -9.869234 -2.1330000 1.00000 0.00000
O    core   0.723353   0.597026  -8.334529  1.01848700 1.00000 0.00000
O    shel   0.723571   0.596952  -8.332759 -2.1330000 1.00000 0.00000
O    core   0.376286   0.628940  -9.100996  1.01848700 1.00000 0.00000
O    shel   0.375702   0.628940  -9.100996 -2.1330000 1.00000 0.00000
C    core   0.876313   0.876313  -3.033666  1.34353899 1.00000 0.00000
O    core   0.718073   0.844400  -2.267198  1.01848700 1.00000 0.00000
O    shel   0.717707   0.844326  -2.265428 -2.1330000 1.00000 0.00000
O    core   0.781900   0.908227  -3.800133  1.01848700 1.00000 0.00000
O    shel   0.781682   0.908300  -3.801904 -2.1330000 1.00000 0.00000
O    core   1.128967   0.876313  -3.033666  1.01848700 1.00000 0.00000
O    shel   1.129551   0.876313  -3.033666 -2.1330000 1.00000 0.00000
Ca   core   0.752626   0.752626  -6.067331  2.00000000 1.00000 0.00000
C    core   0.755253   0.255253 -12.134661  1.34353899 1.00000 0.00000
O    core   0.597012   0.223339 -11.368193  1.01848700 1.00000 0.00000
O    shel   0.596647   0.223265 -11.366423 -2.1330000 1.00000 0.00000
O    core   0.660839   0.287166 -12.901128  1.01848700 1.00000 0.00000
O    shel   0.660621   0.287240 -12.902899 -2.1330000 1.00000 0.00000
O    core   1.007907   0.255253 -12.134661  1.01848700 1.00000 0.00000
O    shel   1.008490   0.255253 -12.134661 -2.1330000 1.00000 0.00000
Ca   core   0.878940   0.378940  -9.100996  2.00000000 1.00000 0.00000
sfractional region 2
C    core   0.048233   0.048232 -15.168327  1.34353899 1.00000 0.00000
O    core  -0.110008   0.016319 -14.401859  1.01848700 1.00000 0.00000
O    shel  -0.110373   0.016245 -14.400089 -2.1330000 1.00000 0.00000
O    core   0.300887   0.048232 -15.168326  1.01848700 1.00000 0.00000
O    shel   0.301470   0.048232 -15.168326 -2.1330000 1.00000 0.00000
O    core  -0.046181   0.080146 -15.934793  1.01848700 1.00000 0.00000
O    shel  -0.046399   0.080220 -15.936563 -2.1330000 1.00000 0.00000
O    core   0.309313   0.182986 -14.401857  1.01848700 1.00000 0.00000
O    shel   0.309531   0.182912 -14.400087 -2.1330000 1.00000 0.00000
C    core   0.214899   0.214899 -15.168325  1.34353899 1.00000 0.00000
O    core  -0.037755   0.214899 -15.168325  1.01848700 1.00000 0.00000
O    shel  -0.038338   0.214899 -15.168325 -2.1330000 1.00000 0.00000
O    core   0.373140   0.246813 -15.934793  1.01848700 1.00000 0.00000
O    shel   0.373505   0.246886 -15.936563 -2.1330000 1.00000 0.00000
Ca   core   0.091213   0.091212 -18.201992  2.00000000 1.00000 0.00000
Ca   core   0.050859   0.550859 -21.235657  2.00000000 1.00000 0.00000
Ca   core   0.217526   0.717526 -21.235657  2.00000000 1.00000 0.00000
C    core   0.174546   0.674546 -18.201992  1.34353899 1.00000 0.00000
O    core   0.332787   0.706459 -18.968458  1.01848700 1.00000 0.00000
O    shel   0.333152   0.706533 -18.970228 -2.1330000 1.00000 0.00000
O    core  -0.078108   0.674546 -18.201992  1.01848700 1.00000 0.00000
O    shel  -0.078692   0.674546 -18.201992 -2.1330000 1.00000 0.00000
O    core   0.268959   0.642632 -17.435524  1.01848700 1.00000 0.00000
O    shel   0.269177   0.642559 -17.433754 -2.1330000 1.00000 0.00000
O    core   0.188252   0.561925 -23.502853  1.01848700 1.00000 0.00000
O    shel   0.188470   0.561852 -23.501083 -2.1330000 1.00000 0.00000
C    core   0.093839   0.593839 -24.269321  1.34353899 1.00000 0.00000
O    core  -0.158815   0.593839 -24.269321  1.01848700 1.00000 0.00000
O    shel  -0.159398   0.593839 -24.269321 -2.1330000 1.00000 0.00000
O    core   0.252080   0.625752 -25.035789  1.01848700 1.00000 0.00000
O    shel   0.252445   0.625826 -25.037560 -2.1330000 1.00000 0.00000
Ca   core   0.298233   0.798233 -15.168327  2.00000000 1.00000 0.00000
O    core   0.182972   0.809299 -17.435524  1.01848700 1.00000 0.00000
O    shel   0.182607   0.809225 -17.433754 -2.1330000 1.00000 0.00000
C    core   0.341212   0.841212 -18.201992  1.34353899 1.00000 0.00000
O    core   0.593867   0.841212 -18.201992  1.01848700 1.00000 0.00000
O    shel   0.594450   0.841212 -18.201992 -2.1330000 1.00000 0.00000
O    core   0.246799   0.873126 -18.968460  1.01848700 1.00000 0.00000
O    shel   0.246581   0.873200 -18.970230 -2.1330000 1.00000 0.00000
Ca   core   0.464899   0.964899 -15.168326  2.00000000 1.00000 0.00000
Ca   core   0.424546   0.424546 -18.201992  2.00000000 1.00000 0.00000
Ca   core   0.591213   0.591212 -18.201992  2.00000000 1.00000 0.00000
Ca   core   0.177172   0.177172 -24.269323  2.00000000 1.00000 0.00000
C    core   0.007879   0.507879 -18.201992  1.34353899 1.00000 0.00000
O    core  -0.150361   0.475966 -17.435524  1.01848700 1.00000 0.00000
O    shel  -0.150727   0.475892 -17.433754 -2.1330000 1.00000 0.00000
O    core  -0.086534   0.539793 -18.968460  1.01848700 1.00000 0.00000
O    shel  -0.086752   0.539866 -18.970230 -2.1330000 1.00000 0.00000
O    core   0.260533   0.507879 -18.201992  1.01848700 1.00000 0.00000
O    shel   0.261117   0.507879 -18.201992 -2.1330000 1.00000 0.00000
C    core   0.300859   0.300859 -21.235659  1.34353899 1.00000 0.00000
O    core   0.142619   0.268945 -20.469191  1.01848700 1.00000 0.00000
O    shel   0.142253   0.268872 -20.467421 -2.1330000 1.00000 0.00000
O    core   0.553513   0.300859 -21.235657  1.01848700 1.00000 0.00000
O    shel   0.554097   0.300859 -21.235657 -2.1330000 1.00000 0.00000
O    core   0.206446   0.332772 -22.002125  1.01848700 1.00000 0.00000
O    shel   0.206228   0.332846 -22.003895 -2.1330000 1.00000 0.00000
C    core   0.548233   0.548233 -15.168326  1.34353899 1.00000 0.00000
O    core   0.706473   0.580146 -15.934793  1.01848700 1.00000 0.00000
O    shel   0.706839   0.580220 -15.936563 -2.1330000 1.00000 0.00000
O    core   0.295579   0.548233 -15.168326  1.01848700 1.00000 0.00000
O    shel   0.294995   0.548233 -15.168326 -2.1330000 1.00000 0.00000
O    core   0.642646   0.516319 -14.401858  1.01848700 1.00000 0.00000
O    shel   0.642864   0.516245 -14.400088 -2.1330000 1.00000 0.00000
O    core   0.561939   0.435612 -20.469189  1.01848700 1.00000 0.00000
O    shel   0.562157   0.435538 -20.467419 -2.1330000 1.00000 0.00000
C    core   0.467526   0.467526 -21.235657  1.34353899 1.00000 0.00000
O    core   0.214872   0.467526 -21.235657  1.01848700 1.00000 0.00000
O    shel   0.214288   0.467526 -21.235657 -2.1330000 1.00000 0.00000
O    core   0.625766   0.499439 -22.002125  1.01848700 1.00000 0.00000
O    shel   0.626132   0.499513 -22.003895 -2.1330000 1.00000 0.00000
Ca   core   0.343839   0.343839 -24.269321  2.00000000 1.00000 0.00000
Ca   core   0.131566   0.631566 -15.168327  2.00000000 1.00000 0.00000
O    core   0.556659   0.682986 -14.401859  1.01848700 1.00000 0.00000
O    shel   0.556293   0.682912 -14.400089 -2.1330000 1.00000 0.00000
C    core   0.714899   0.714899 -15.168327  1.34353899 1.00000 0.00000
O    core   0.967553   0.714899 -15.168327  1.01848700 1.00000 0.00000
O    shel   0.968137   0.714899 -15.168327 -2.1330000 1.00000 0.00000
O    core   0.620486   0.746813 -15.934794  1.01848700 1.00000 0.00000
O    shel   0.620268   0.746886 -15.936565 -2.1330000 1.00000 0.00000
Ca   core   0.010506   0.010505 -24.269321  2.00000000 1.00000 0.00000
C    core   0.134192   0.134192 -21.235657  1.34353899 1.00000 0.00000
O    core   0.292433   0.166106 -22.002125  1.01848700 1.00000 0.00000
O    shel   0.292798   0.166179 -22.003895 -2.1330000 1.00000 0.00000
O    core   0.228606   0.102279 -20.469189  1.01848700 1.00000 0.00000
O    shel   0.228824   0.102205 -20.467419 -2.1330000 1.00000 0.00000
O    core  -0.118462   0.134192 -21.235657  1.01848700 1.00000 0.00000
O    shel  -0.119045   0.134192 -21.235657 -2.1330000 1.00000 0.00000
Ca   core   0.798233   0.298233 -15.168325  2.00000000 1.00000 0.00000
Ca   core   0.964899   0.464899 -15.168326  2.00000000 1.00000 0.00000
Ca   core   0.550859   0.050859 -21.235657  2.00000000 1.00000 0.00000
C    core   0.381566   0.381566 -15.168325  1.34353899 1.00000 0.00000
O    core   0.223326   0.349652 -14.401857  1.01848700 1.00000 0.00000
O    shel   0.222960   0.349579 -14.400087 -2.1330000 1.00000 0.00000
O    core   0.287153   0.413479 -15.934793  1.01848700 1.00000 0.00000
O    shel   0.286935   0.413553 -15.936563 -2.1330000 1.00000 0.00000
O    core   0.634220   0.381566 -15.168325  1.01848700 1.00000 0.00000
O    shel   0.634804   0.381566 -15.168325 -2.1330000 1.00000 0.00000
C    core   0.674546   0.174546 -18.201992  1.34353899 1.00000 0.00000
O    core   0.516305   0.142632 -17.435524  1.01848700 1.00000 0.00000
O    shel   0.515940   0.142558 -17.433754 -2.1330000 1.00000 0.00000
O    core   0.927200   0.174546 -18.201992  1.01848700 1.00000 0.00000
O    shel   0.927783   0.174546 -18.201992 -2.1330000 1.00000 0.00000
O    core   0.580132   0.206459 -18.968458  1.01848700 1.00000 0.00000
O    shel   0.579914   0.206533 -18.970228 -2.1330000 1.00000 0.00000
O    core   0.935626   0.309299 -17.435522  1.01848700 1.00000 0.00000
O    shel   0.935844   0.309225 -17.433752 -2.1330000 1.00000 0.00000
C    core   0.841213   0.341212 -18.201990  1.34353899 1.00000 0.00000
O    core   0.588559   0.341212 -18.201990  1.01848700 1.00000 0.00000
O    shel   0.587975   0.341212 -18.201990 -2.1330000 1.00000 0.00000
O    core   0.999453   0.373126 -18.968458  1.01848700 1.00000 0.00000
O    shel   0.999819   0.373200 -18.970228 -2.1330000 1.00000 0.00000
O    core   0.435598   0.061925 -23.502853  1.01848700 1.00000 0.00000
O    shel   0.435233   0.061851 -23.501083 -2.1330000 1.00000 0.00000
C    core   0.593839   0.093839 -24.269321  1.34353899 1.00000 0.00000
O    core   0.846493   0.093839 -24.269321  1.01848700 1.00000 0.00000
O    shel   0.847077   0.093839 -24.269321 -2.1330000 1.00000 0.00000
O    core   0.499426   0.125752 -25.035789  1.01848700 1.00000 0.00000
O    shel   0.499207   0.125826 -25.037560 -2.1330000 1.00000 0.00000
Ca   core   0.717526   0.217526 -21.235657  2.00000000 1.00000 0.00000
Ca   core   0.257879   0.257879 -18.201992  2.00000000 1.00000 0.00000
C    core   0.507879   0.007879 -18.201992  1.34353899 1.00000 0.00000
O    core   0.666120   0.039793 -18.968460  1.01848700 1.00000 0.00000
O    shel   0.666485   0.039866 -18.970230 -2.1330000 1.00000 0.00000
O    core   0.602293  -0.024035 -17.435524  1.01848700 1.00000 0.00000
O    shel   0.602511  -0.024108 -17.433754 -2.1330000 1.00000 0.00000
O    core   0.255225   0.007879 -18.201992  1.01848700 1.00000 0.00000
O    shel   0.254642   0.007879 -18.201992 -2.1330000 1.00000 0.00000
Ca   core   0.631566   0.131566 -15.168326  2.00000000 1.00000 0.00000
C    core   0.427172   0.927172 -24.269321  1.34353899 1.00000 0.00000
O    core   0.585413   0.959086 -25.035789  1.01848700 1.00000 0.00000
O    shel   0.585778   0.959159 -25.037560 -2.1330000 1.00000 0.00000
O    core   0.174518   0.927172 -24.269321  1.01848700 1.00000 0.00000
O    shel   0.173935   0.927172 -24.269321 -2.1330000 1.00000 0.00000
O    core   0.521586   0.895259 -23.502853  1.01848700 1.00000 0.00000
O    shel   0.521804   0.895185 -23.501083 -2.1330000 1.00000 0.00000
Ca   core   0.677172   0.677172 -24.269323  2.00000000 1.00000 0.00000
Ca   core   0.843839   0.843839 -24.269325  2.00000000 1.00000 0.00000
C    core   0.260506   0.760505 -24.269323  1.34353899 1.00000 0.00000
O    core   0.102265   0.728592 -23.502855  1.01848700 1.00000 0.00000
O    shel   0.101900   0.728518 -23.501085 -2.1330000 1.00000 0.00000
O    core   0.166092   0.792419 -25.035789  1.01848700 1.00000 0.00000
O    shel   0.165874   0.792493 -25.037561 -2.1330000 1.00000 0.00000
O    core   0.513160   0.760505 -24.269323  1.01848700 1.00000 0.00000
O    shel   0.513743   0.760505 -24.269323 -2.1330000 1.00000 0.00000
C    core   0.800859   0.800859 -21.235657  1.34353899 1.00000 0.00000
O    core   0.959100   0.832772 -22.002125  1.01848700 1.00000 0.00000
O    shel   0.959465   0.832846 -22.003895 -2.1330000 1.00000 0.00000
O    core   0.548205   0.800859 -21.235657  1.01848700 1.00000 0.00000
O    shel   0.547622   0.800859 -21.235657 -2.1330000 1.00000 0.00000
O    core   0.895273   0.768945 -20.469189  1.01848700 1.00000 0.00000
O    shel   0.895491   0.768872 -20.467419 -2.1330000 1.00000 0.00000
Ca   core   0.384192   0.884192 -21.235659  2.00000000 1.00000 0.00000
Ca   core   0.924546   0.924546 -18.201994  2.00000000 1.00000 0.00000
O    core   0.809285   0.935612 -20.469191  1.01848700 1.00000 0.00000
O    shel   0.808920   0.935538 -20.467421 -2.1330000 1.00000 0.00000
C    core   0.967526   0.967526 -21.235659  1.34353899 1.00000 0.00000
O    core   1.220180   0.967526 -21.235659  1.01848700 1.00000 0.00000
O    shel   1.220763   0.967526 -21.235659 -2.1330000 1.00000 0.00000
O    core   0.873112   0.999439 -22.002127  1.01848700 1.00000 0.00000
O    shel   0.872894   0.999513 -22.003897 -2.1330000 1.00000 0.00000
C    core   0.634192   0.634192 -21.235657  1.34353899 1.00000 0.00000
O    core   0.475952   0.602279 -20.469189  1.01848700 1.00000 0.00000
O    shel   0.475587   0.602205 -20.467419 -2.1330000 1.00000 0.00000
O    core   0.539779   0.666106 -22.002125  1.01848700 1.00000 0.00000
O    shel   0.539561   0.666180 -22.003895 -2.1330000 1.00000 0.00000
O    core   0.886846   0.634192 -21.235657  1.01848700 1.00000 0.00000
O    shel   0.887430   0.634192 -21.235657 -2.1330000 1.00000 0.00000
C    core   0.927172   0.427172 -24.269323  1.34353899 1.00000 0.00000
O    core   0.768932   0.395259 -23.502855  1.01848700 1.00000 0.00000
O    shel   0.768566   0.395185 -23.501085 -2.1330000 1.00000 0.00000
O    core   1.179826   0.427172 -24.269321  1.01848700 1.00000 0.00000
O    shel   1.180410   0.427172 -24.269321 -2.1330000 1.00000 0.00000
O    core   0.832759   0.459086 -25.035789  1.01848700 1.00000 0.00000
O    shel   0.832541   0.459159 -25.037560 -2.1330000 1.00000 0.00000
Ca   core   0.510506   0.510505 -24.269321  2.00000000 1.00000 0.00000
Ca   core   0.757879   0.757879 -18.201992  2.00000000 1.00000 0.00000
C    core   0.881566   0.881566 -15.168327  1.34353899 1.00000 0.00000
O    core   1.039806   0.913479 -15.934794  1.01848700 1.00000 0.00000
O    shel   1.040172   0.913553 -15.936564 -2.1330000 1.00000 0.00000
O    core   0.975979   0.849652 -14.401859  1.01848700 1.00000 0.00000
O    shel   0.976198   0.849579 -14.400089 -2.1330000 1.00000 0.00000
O    core   0.628912   0.881566 -15.168327  1.01848700 1.00000 0.00000
O    shel   0.628329   0.881566 -15.168327 -2.1330000 1.00000 0.00000
C    core   0.760506   0.260505 -24.269323  1.34353899 1.00000 0.00000
O    core   0.918746   0.292419 -25.035789  1.01848700 1.00000 0.00000
O    shel   0.919112   0.292493 -25.037560 -2.1330000 1.00000 0.00000
O    core   0.854919   0.228592 -23.502855  1.01848700 1.00000 0.00000
O    shel   0.855137   0.228518 -23.501085 -2.1330000 1.00000 0.00000
O    core   0.507852   0.260505 -24.269323  1.01848700 1.00000 0.00000
O    shel   0.507268   0.260505 -24.269323 -2.1330000 1.00000 0.00000
Ca   core   0.884192   0.384192 -21.235657  2.00000000 1.00000 0.00000

dhkl 3.033665

sbulkenergy -1023.043030

elements
covalent 25  0.0000
covalent 26  0.0000
covalent 27  0.0000
covalent 28  0.0000
covalent 30  0.0000
covalent 48  0.0000
end

species
Cd     core    2.000000
Mn     core    2.000000
Mg     core    2.000000
Zn     core    2.000000
Ni     core    2.000000
Co     core    2.000000
Fe     core    2.000000
Ca     core    2.000000
C      core    1.343539
O      core    1.018487
O      shel   -2.133000
end

buck intra     
O     core O     core  4030.30000     0.245497 0.0000000      0.000  2.500

buck     
Ca    core O     shel  2154.06000     0.289118 0.0000000      0.000 10.000

buck inter     
O     shel O     shel  64727.5050     0.198914  21.84357      0.000 15.000

buck     
Cd    core O     shel  4329.81000     0.256300 0.0000000      0.000 10.000

buck     
Mg    core O     shel  1039.58460     0.289329 0.0000000      0.000 10.000

buck     
Co    core O     shel  1095.59850     0.286300 0.0000000      0.000 10.000

buck     
Fe    core O     shel  2152.98610     0.265068 0.0000000      0.000 10.000

buck     
Mn    core O     shel  2000.93570     0.272681 0.0000000      0.000 10.000

buck     
Ni    core O     shel  1634.46190     0.266612 0.0000000      0.000 10.000

buck     
Zn    core O     shel  1029.39000     0.289100 0.0000000      0.000 10.000

morse intra bond
C     core O     core 5.0000000     2.5228      1.19820  0.0000

spring
O      52.739130     10000.000    

three bond intra
C     core O     core O     core 1.7765     120.00    

outofplane bond intra
C     cor O     cor O     cor O     cor 8.8279    


dump calcite_-114_0.0000.res
