single conp mole
title
generated by GDIS
end
cell
12.516640 15.346710 0.000000  89.999999 89.999999 78.824075
fractional
CA     0.0143 -0.0227 -0.1953
CA     0.5182 -0.0177 -0.3252
CA     0.3443  0.7927 -0.9524
CA     0.8472  0.7921 -0.9884
CA     0.1844  0.5943 -1.5663
