single conp

# Created by GDIS version 0.90.0
#

name deoxygalactose


dump deoxygalactose.res

cell
10.434830 7.006676 5.088075  89.999900 87.465800 89.999900
fractional
O    core     0.062943    0.939271    0.808373
O    core     0.425136    0.806562    0.203639
O    core     0.448291    0.631753    0.725529
O    core     0.164775    0.648623    0.827515
O    core     0.143079    0.260619    1.014451
C    core     0.127494    0.800619    0.654484
C    core     0.245550    0.888161    0.509632
C    core     0.317653    0.730411    0.355920
C    core     0.355013    0.568345    0.543686
C    core     0.229397    0.496027    0.686863
C    core     0.256169    0.337657    0.885366
O    core     0.937060    0.439270    0.191613
O    core     0.574867    0.306550    0.796337
O    core     0.551714    0.131750    0.274451
O    core     0.835228    0.148622    0.172464
O    core     0.856921   -0.239382   -0.014491
C    core     0.872510    0.300614    0.345495
C    core     0.754452    0.388155    0.490349
C    core     0.682351    0.230402    0.644062
C    core     0.644995    0.068339    0.456291
C    core     0.770608   -0.003979    0.313107
C    core     0.743838   -0.162344    0.114607
H    core     1.019970    0.381418    0.112712
H    core     0.573343    0.244736    0.975235
H    core     0.495762    0.017141    0.242940
H    core     0.883480   -0.360882    0.075494
H    core     0.938704    0.237084    0.491600
H    core     0.691467    0.452760    0.342691
H    core     0.785446    0.501333    0.628151
H    core     0.750546    0.168016    0.783848
H    core     0.602326   -0.052730    0.574586
H    core     0.834514   -0.062377    0.466521
H    core     0.682138   -0.104220   -0.039811
H    core     0.687268   -0.276684    0.219188
H    core    -0.019967    0.881420    0.887264
H    core     0.426663    0.744744    0.024747
H    core     0.504244    0.517141    0.757039
H    core     0.116524    0.139122    0.924471
H    core     0.061300    0.737092    0.508378
H    core     0.308535    0.952767    0.657289
H    core     0.214553    1.001339    0.371830
H    core     0.249460    0.668024    0.216130
H    core     0.397682    0.447276    0.425385
H    core     0.165495    0.437629    0.533447
H    core     0.317864    0.395783    1.039789
H    core     0.312742    0.223319    0.780788

space
P 1

print 1
