single conv mole

name calcite_-10-4_0.0000


svectors
4.980183  0.000000
4.980183  -24.270662
sfractional region 1
O    core   0.862607   0.011066  -2.267198  1.01848700 1.00000 0.00000
O    shel   0.862389   0.010993  -2.265427 -2.1330000 1.00000 0.00000
C    core   0.957020   0.042980  -3.033665  1.34353899 1.00000 0.00000
O    core   0.798780   0.074893  -3.800133  1.01848700 1.00000 0.00000
O    shel   0.798414   0.074967  -3.801903 -2.1330000 1.00000 0.00000
O    core   1.209674   0.042980  -3.033665  1.01848700 1.00000 0.00000
O    shel   1.210258   0.042980  -3.033665 -2.1330000 1.00000 0.00000
C    core   0.790353   0.209646  -3.033667  1.34353899 1.00000 0.00000
O    core   0.884767   0.241560  -3.800135  1.01848700 1.00000 0.00000
O    shel   0.884985   0.241634  -3.801905 -2.1330000 1.00000 0.00000
O    core   0.948594   0.177733  -2.267200  1.01848700 1.00000 0.00000
O    shel   0.948959   0.177659  -2.265429 -2.1330000 1.00000 0.00000
O    core   0.537699   0.209646  -3.033667  1.01848700 1.00000 0.00000
O    shel   0.537116   0.209646  -3.033668 -2.1330000 1.00000 0.00000
Ca   core   0.914040   0.085960  -6.067330  2.00000000 1.00000 0.00000
Ca   core   0.207020   0.292980  -3.033666  2.00000000 1.00000 0.00000
Ca   core   0.373687   0.126313  -3.033665  2.00000000 1.00000 0.00000
C    core   0.497374   0.002626  -6.067330  1.34353899 1.00000 0.00000
O    core   0.591787   0.034540  -6.833797  1.01848700 1.00000 0.00000
O    shel   0.592005   0.034614  -6.835568 -2.1330000 1.00000 0.00000
O    core   0.244720   0.002626  -6.067330  1.01848700 1.00000 0.00000
O    shel   0.244136   0.002626  -6.067330 -2.1330000 1.00000 0.00000
O    core   0.655614  -0.029287  -5.300863  1.01848700 1.00000 0.00000
O    shel   0.655980  -0.029361  -5.299092 -2.1330000 1.00000 0.00000
O    core   0.236294   0.137379  -5.300863  1.01848700 1.00000 0.00000
O    shel   0.236076   0.137306  -5.299092 -2.1330000 1.00000 0.00000
C    core   0.330707   0.169293  -6.067330  1.34353899 1.00000 0.00000
O    core   0.172466   0.201207  -6.833798  1.01848700 1.00000 0.00000
O    shel   0.172101   0.201280  -6.835568 -2.1330000 1.00000 0.00000
O    core   0.583361   0.169293  -6.067330  1.01848700 1.00000 0.00000
O    shel   0.583945   0.169293  -6.067330 -2.1330000 1.00000 0.00000
Ca   core   0.454394   0.045606  -9.100996  2.00000000 1.00000 0.00000
Ca   core   0.040354   0.459646  -3.033667  2.00000000 1.00000 0.00000
Ca   core   0.580707   0.419293  -6.067330  2.00000000 1.00000 0.00000
C    core   0.623687   0.376313  -3.033666  1.34353899 1.00000 0.00000
O    core   0.529273   0.344400  -2.267199  1.01848700 1.00000 0.00000
O    shel   0.529055   0.344326  -2.265429 -2.1330000 1.00000 0.00000
O    core   0.876341   0.376313  -3.033666  1.01848700 1.00000 0.00000
O    shel   0.876924   0.376313  -3.033666 -2.1330000 1.00000 0.00000
O    core   0.465446   0.408227  -3.800134  1.01848700 1.00000 0.00000
O    shel   0.465081   0.408300  -3.801904 -2.1330000 1.00000 0.00000
C    core   0.164040   0.335960  -6.067331  1.34353899 1.00000 0.00000
O    core   0.258454   0.367873  -6.833799  1.01848700 1.00000 0.00000
O    shel   0.258672   0.367947  -6.835569 -2.1330000 1.00000 0.00000
O    core   0.322281   0.304046  -5.300864  1.01848700 1.00000 0.00000
O    shel   0.322646   0.303972  -5.299093 -2.1330000 1.00000 0.00000
O    core  -0.088614   0.335960  -6.067331  1.01848700 1.00000 0.00000
O    shel  -0.089197   0.335960  -6.067332 -2.1330000 1.00000 0.00000
O    core   0.204366   0.542980  -3.033667  1.01848700 1.00000 0.00000
O    shel   0.203783   0.542980  -3.033667 -2.1330000 1.00000 0.00000
C    core   0.457020   0.542980  -3.033667  1.34353899 1.00000 0.00000
O    core   0.615261   0.511066  -2.267199  1.01848700 1.00000 0.00000
O    shel   0.615626   0.510993  -2.265429 -2.1330000 1.00000 0.00000
O    core   0.551434   0.574893  -3.800134  1.01848700 1.00000 0.00000
O    shel   0.551652   0.574967  -3.801904 -2.1330000 1.00000 0.00000
Ca   core   0.747374   0.252626  -6.067330  2.00000000 1.00000 0.00000
C    core   0.871061   0.128940  -9.100995  1.34353899 1.00000 0.00000
O    core   0.965474   0.160853  -9.867463  1.01848700 1.00000 0.00000
O    shel   0.965692   0.160927  -9.869233 -2.1330000 1.00000 0.00000
O    core   0.618407   0.128940  -9.100996  1.01848700 1.00000 0.00000
O    shel   0.617823   0.128940  -9.100995 -2.1330000 1.00000 0.00000
O    core   1.029301   0.097026  -8.334528  1.01848700 1.00000 0.00000
O    shel   1.029667   0.096952  -8.332758 -2.1330000 1.00000 0.00000
Ca   core   0.287727   0.212273  -9.100995  2.00000000 1.00000 0.00000
C    core   0.411414   0.088586 -12.134661  1.34353899 1.00000 0.00000
O    core   0.317001   0.056673 -11.368193  1.01848700 1.00000 0.00000
O    shel   0.316783   0.056599 -11.366423 -2.1330000 1.00000 0.00000
O    core   0.253174   0.120500 -12.901127  1.01848700 1.00000 0.00000
O    shel   0.252808   0.120573 -12.902897 -2.1330000 1.00000 0.00000
O    core   0.664068   0.088586 -12.134660  1.01848700 1.00000 0.00000
O    shel   0.664652   0.088586 -12.134660 -2.1330000 1.00000 0.00000
O    core   0.609981   0.263693  -8.334528  1.01848700 1.00000 0.00000
O    shel   0.609762   0.263619  -8.332758 -2.1330000 1.00000 0.00000
C    core   0.704394   0.295606  -9.100996  1.34353899 1.00000 0.00000
O    core   0.546153   0.327520  -9.867463  1.01848700 1.00000 0.00000
O    shel   0.545788   0.327593  -9.869234 -2.1330000 1.00000 0.00000
O    core   0.957048   0.295606  -9.100996  1.01848700 1.00000 0.00000
O    shel   0.957632   0.295606  -9.100996 -2.1330000 1.00000 0.00000
Ca   core   0.828081   0.171919 -12.134661  2.00000000 1.00000 0.00000
Ca   core   0.994747   0.005253 -12.134661  2.00000000 1.00000 0.00000
Ca   core   0.414040   0.585960  -6.067332  2.00000000 1.00000 0.00000
Ca   core   0.954394   0.545606  -9.100996  2.00000000 1.00000 0.00000
C    core   0.997374   0.502626  -6.067331  1.34353899 1.00000 0.00000
O    core   0.902960   0.470713  -5.300864  1.01848700 1.00000 0.00000
O    shel   0.902742   0.470639  -5.299094 -2.1330000 1.00000 0.00000
O    core   1.250028   0.502626  -6.067331  1.01848700 1.00000 0.00000
O    shel   1.250611   0.502626  -6.067331 -2.1330000 1.00000 0.00000
O    core   0.839133   0.534540  -6.833799  1.01848700 1.00000 0.00000
O    shel   0.838768   0.534614  -6.835569 -2.1330000 1.00000 0.00000
C    core   0.290353   0.709647  -3.033666  1.34353899 1.00000 0.00000
O    core   0.195940   0.677733  -2.267198  1.01848700 1.00000 0.00000
O    shel   0.195722   0.677659  -2.265428 -2.1330000 1.00000 0.00000
O    core   0.132113   0.741560  -3.800133  1.01848700 1.00000 0.00000
O    shel   0.131748   0.741634  -3.801903 -2.1330000 1.00000 0.00000
O    core   0.543007   0.709647  -3.033665  1.01848700 1.00000 0.00000
O    shel   0.543591   0.709647  -3.033665 -2.1330000 1.00000 0.00000
C    core   0.537727   0.462273  -9.100996  1.34353899 1.00000 0.00000
O    core   0.632141   0.494186  -9.867464  1.01848700 1.00000 0.00000
O    shel   0.632359   0.494260  -9.869234 -2.1330000 1.00000 0.00000
O    core   0.695968   0.430359  -8.334530  1.01848700 1.00000 0.00000
O    shel   0.696333   0.430286  -8.332758 -2.1330000 1.00000 0.00000
O    core   0.285073   0.462273  -9.100996  1.01848700 1.00000 0.00000
O    shel   0.284490   0.462273  -9.100998 -2.1330000 1.00000 0.00000
O    core   0.578053   0.669293  -6.067332  1.01848700 1.00000 0.00000
O    shel   0.577470   0.669293  -6.067332 -2.1330000 1.00000 0.00000
C    core   0.830707   0.669293  -6.067332  1.34353899 1.00000 0.00000
O    core   0.988948   0.637379  -5.300864  1.01848700 1.00000 0.00000
O    shel   0.989313   0.637306  -5.299094 -2.1330000 1.00000 0.00000
O    core   0.925121   0.701207  -6.833799  1.01848700 1.00000 0.00000
O    shel   0.925339   0.701280  -6.835569 -2.1330000 1.00000 0.00000
Ca   core   0.707020   0.792980  -3.033666  2.00000000 1.00000 0.00000
Ca   core   0.873687   0.626313  -3.033666  2.00000000 1.00000 0.00000
Ca   core   0.661414   0.338586 -12.134661  2.00000000 1.00000 0.00000
Ca   core   0.121061   0.378939  -9.100995  2.00000000 1.00000 0.00000
C    core   0.244748   0.255253 -12.134660  1.34353899 1.00000 0.00000
O    core   0.339161   0.287166 -12.901128  1.01848700 1.00000 0.00000
O    shel   0.339379   0.287240 -12.902898 -2.1330000 1.00000 0.00000
O    core  -0.007906   0.255253 -12.134661  1.01848700 1.00000 0.00000
O    shel  -0.008490   0.255253 -12.134660 -2.1330000 1.00000 0.00000
O    core   0.402988   0.223339 -11.368193  1.01848700 1.00000 0.00000
O    shel   0.403354   0.223265 -11.366423 -2.1330000 1.00000 0.00000
O    core  -0.016333   0.390006 -11.368193  1.01848700 1.00000 0.00000
O    shel  -0.016551   0.389932 -11.366423 -2.1330000 1.00000 0.00000
C    core   0.078081   0.421919 -12.134661  1.34353899 1.00000 0.00000
O    core  -0.080160   0.453833 -12.901128  1.01848700 1.00000 0.00000
O    shel  -0.080525   0.453907 -12.902899 -2.1330000 1.00000 0.00000
O    core   0.330735   0.421919 -12.134661  1.01848700 1.00000 0.00000
O    shel   0.331318   0.421919 -12.134661 -2.1330000 1.00000 0.00000
Ca   core   0.787727   0.712273  -9.100997  2.00000000 1.00000 0.00000
Ca   core   0.540354   0.959647  -3.033666  2.00000000 1.00000 0.00000
C    core   0.664041   0.835960  -6.067331  1.34353899 1.00000 0.00000
O    core   0.569627   0.804046  -5.300863  1.01848700 1.00000 0.00000
O    shel   0.569409   0.803972  -5.299093 -2.1330000 1.00000 0.00000
O    core   0.505800   0.867873  -6.833798  1.01848700 1.00000 0.00000
O    shel   0.505434   0.867947  -6.835568 -2.1330000 1.00000 0.00000
O    core   0.916694   0.835960  -6.067330  1.01848700 1.00000 0.00000
O    shel   0.917278   0.835960  -6.067330 -2.1330000 1.00000 0.00000
C    core   0.911414   0.588586 -12.134662  1.34353899 1.00000 0.00000
O    core   1.005828   0.620499 -12.901130  1.01848700 1.00000 0.00000
O    shel   1.006046   0.620573 -12.902900 -2.1330000 1.00000 0.00000
O    core   1.069655   0.556672 -11.368195  1.01848700 1.00000 0.00000
O    shel   1.070020   0.556599 -11.366424 -2.1330000 1.00000 0.00000
O    core   0.658760   0.588586 -12.134662  1.01848700 1.00000 0.00000
O    shel   0.658177   0.588586 -12.134663 -2.1330000 1.00000 0.00000
C    core   0.123687   0.876313  -3.033666  1.34353899 1.00000 0.00000
O    core   0.218100   0.908227  -3.800133  1.01848700 1.00000 0.00000
O    shel   0.218318   0.908300  -3.801904 -2.1330000 1.00000 0.00000
O    core  -0.128967   0.876313  -3.033666  1.01848700 1.00000 0.00000
O    shel  -0.129551   0.876313  -3.033666 -2.1330000 1.00000 0.00000
O    core   0.281927   0.844400  -2.267199  1.01848700 1.00000 0.00000
O    shel   0.282293   0.844326  -2.265428 -2.1330000 1.00000 0.00000
Ca   core   0.328081   0.671919 -12.134661  2.00000000 1.00000 0.00000
C    core   0.371061   0.628940  -9.100996  1.34353899 1.00000 0.00000
O    core   0.276647   0.597026  -8.334529  1.01848700 1.00000 0.00000
O    shel   0.276429   0.596952  -8.332759 -2.1330000 1.00000 0.00000
O    core   0.623715   0.628940  -9.100996  1.01848700 1.00000 0.00000
O    shel   0.624298   0.628940  -9.100996 -2.1330000 1.00000 0.00000
O    core   0.212820   0.660853  -9.867464  1.01848700 1.00000 0.00000
O    shel   0.212455   0.660927  -9.869234 -2.1330000 1.00000 0.00000
O    core  -0.048260   0.795606  -9.100997  1.01848700 1.00000 0.00000
O    shel  -0.048844   0.795606  -9.100997 -2.1330000 1.00000 0.00000
C    core   0.204394   0.795606  -9.100997  1.34353899 1.00000 0.00000
O    core   0.362634   0.763693  -8.334529  1.01848700 1.00000 0.00000
O    shel   0.363000   0.763619  -8.332759 -2.1330000 1.00000 0.00000
O    core   0.298807   0.827520  -9.867464  1.01848700 1.00000 0.00000
O    shel   0.299025   0.827593  -9.869234 -2.1330000 1.00000 0.00000
Ca   core   0.080707   0.919293  -6.067331  2.00000000 1.00000 0.00000
Ca   core   0.247374   0.752626  -6.067331  2.00000000 1.00000 0.00000
Ca   core   0.494748   0.505253 -12.134661  2.00000000 1.00000 0.00000
Ca   core   0.161414   0.838586 -12.134663  2.00000000 1.00000 0.00000
C    core   0.744748   0.755253 -12.134661  1.34353899 1.00000 0.00000
O    core   0.650334   0.723339 -11.368195  1.01848700 1.00000 0.00000
O    shel   0.650116   0.723265 -11.366425 -2.1330000 1.00000 0.00000
O    core   0.997402   0.755253 -12.134661  1.01848700 1.00000 0.00000
O    shel   0.997985   0.755253 -12.134661 -2.1330000 1.00000 0.00000
O    core   0.586507   0.787166 -12.901129  1.01848700 1.00000 0.00000
O    shel   0.586142   0.787240 -12.902899 -2.1330000 1.00000 0.00000
C    core   0.037727   0.962273  -9.100996  1.34353899 1.00000 0.00000
O    core  -0.056686   0.930359  -8.334528  1.01848700 1.00000 0.00000
O    shel  -0.056904   0.930286  -8.332758 -2.1330000 1.00000 0.00000
O    core  -0.120513   0.994186  -9.867463  1.01848700 1.00000 0.00000
O    shel  -0.120879   0.994260  -9.869233 -2.1330000 1.00000 0.00000
O    core   0.290381   0.962273  -9.100996  1.01848700 1.00000 0.00000
O    shel   0.290965   0.962273  -9.100996 -2.1330000 1.00000 0.00000
O    core   0.325427   0.921919 -12.134663  1.01848700 1.00000 0.00000
O    shel   0.324843   0.921919 -12.134663 -2.1330000 1.00000 0.00000
C    core   0.578081   0.921919 -12.134663  1.34353899 1.00000 0.00000
O    core   0.736322   0.890006 -11.368195  1.01848700 1.00000 0.00000
O    shel   0.736687   0.889932 -11.366425 -2.1330000 1.00000 0.00000
O    core   0.672494   0.953833 -12.901129  1.01848700 1.00000 0.00000
O    shel   0.672712   0.953906 -12.902899 -2.1330000 1.00000 0.00000
Ca   core   0.621061   0.878940  -9.100996  2.00000000 1.00000 0.00000
sfractional region 2
O    core   0.699114   0.048232 -15.168326  1.01848700 1.00000 0.00000
O    shel   0.698530   0.048232 -15.168326 -2.1330000 1.00000 0.00000
C    core   0.951768   0.048232 -15.168326  1.34353899 1.00000 0.00000
O    core   1.110008   0.016319 -14.401858  1.01848700 1.00000 0.00000
O    shel   1.110374   0.016245 -14.400088 -2.1330000 1.00000 0.00000
O    core   1.046181   0.080146 -15.934793  1.01848700 1.00000 0.00000
O    shel   1.046399   0.080220 -15.936563 -2.1330000 1.00000 0.00000
Ca   core   0.908788   0.091212 -18.201992  2.00000000 1.00000 0.00000
C    core   0.785101   0.214899 -15.168325  1.34353899 1.00000 0.00000
O    core   0.690687   0.182986 -14.401858  1.01848700 1.00000 0.00000
O    shel   0.690469   0.182912 -14.400087 -2.1330000 1.00000 0.00000
O    core   0.626861   0.246813 -15.934793  1.01848700 1.00000 0.00000
O    shel   0.626495   0.246886 -15.936563 -2.1330000 1.00000 0.00000
O    core   1.037755   0.214899 -15.168325  1.01848700 1.00000 0.00000
O    shel   1.038338   0.214899 -15.168325 -2.1330000 1.00000 0.00000
Ca   core   0.449141   0.050859 -21.235655  2.00000000 1.00000 0.00000
C    core   0.492121   0.007879 -18.201990  1.34353899 1.00000 0.00000
O    core   0.397708  -0.024035 -17.435524  1.01848700 1.00000 0.00000
O    shel   0.397490  -0.024108 -17.433754 -2.1330000 1.00000 0.00000
O    core   0.744775   0.007879 -18.201990  1.01848700 1.00000 0.00000
O    shel   0.745359   0.007879 -18.201990 -2.1330000 1.00000 0.00000
O    core   0.333881   0.039792 -18.968458  1.01848700 1.00000 0.00000
O    shel   0.333515   0.039866 -18.970228 -2.1330000 1.00000 0.00000
O    core   0.072801   0.174546 -18.201992  1.01848700 1.00000 0.00000
O    shel   0.072217   0.174546 -18.201992 -2.1330000 1.00000 0.00000
C    core   0.325455   0.174546 -18.201992  1.34353899 1.00000 0.00000
O    core   0.483695   0.142632 -17.435524  1.01848700 1.00000 0.00000
O    shel   0.484061   0.142558 -17.433754 -2.1330000 1.00000 0.00000
O    core   0.419868   0.206459 -18.968458  1.01848700 1.00000 0.00000
O    shel   0.420086   0.206533 -18.970228 -2.1330000 1.00000 0.00000
Ca   core   0.201768   0.298232 -15.168325  2.00000000 1.00000 0.00000
Ca   core   0.368434   0.131566 -15.168325  2.00000000 1.00000 0.00000
C    core   0.618434   0.381566 -15.168325  1.34353899 1.00000 0.00000
O    core   0.712848   0.413479 -15.934793  1.01848700 1.00000 0.00000
O    shel   0.713066   0.413553 -15.936563 -2.1330000 1.00000 0.00000
O    core   0.365780   0.381566 -15.168325  1.01848700 1.00000 0.00000
O    shel   0.365197   0.381566 -15.168325 -2.1330000 1.00000 0.00000
O    core   0.776675   0.349652 -14.401858  1.01848700 1.00000 0.00000
O    shel   0.777040   0.349579 -14.400088 -2.1330000 1.00000 0.00000
Ca   core   0.282475   0.217525 -21.235657  2.00000000 1.00000 0.00000
Ca   core   0.822828   0.177172 -24.269321  2.00000000 1.00000 0.00000
Ca   core   0.035101   0.464899 -15.168325  2.00000000 1.00000 0.00000
C    core   0.865808   0.134192 -21.235657  1.34353899 1.00000 0.00000
O    core   0.771395   0.102279 -20.469189  1.01848700 1.00000 0.00000
O    shel   0.771177   0.102205 -20.467419 -2.1330000 1.00000 0.00000
O    core   1.118462   0.134192 -21.235657  1.01848700 1.00000 0.00000
O    shel   1.119046   0.134192 -21.235657 -2.1330000 1.00000 0.00000
O    core   0.707568   0.166106 -22.002125  1.01848700 1.00000 0.00000
O    shel   0.707202   0.166179 -22.003895 -2.1330000 1.00000 0.00000
C    core   0.158788   0.341212 -18.201990  1.34353899 1.00000 0.00000
O    core   0.064374   0.309299 -17.435524  1.01848700 1.00000 0.00000
O    shel   0.064156   0.309225 -17.433752 -2.1330000 1.00000 0.00000
O    core   0.000547   0.373126 -18.968458  1.01848700 1.00000 0.00000
O    shel   0.000182   0.373200 -18.970228 -2.1330000 1.00000 0.00000
O    core   0.411442   0.341212 -18.201990  1.01848700 1.00000 0.00000
O    shel   0.412025   0.341212 -18.201990 -2.1330000 1.00000 0.00000
C    core   0.406162   0.093839 -24.269321  1.34353899 1.00000 0.00000
O    core   0.500575   0.125752 -25.035789  1.01848700 1.00000 0.00000
O    shel   0.500793   0.125826 -25.037560 -2.1330000 1.00000 0.00000
O    core   0.564402   0.061925 -23.502853  1.01848700 1.00000 0.00000
O    shel   0.564768   0.061851 -23.501083 -2.1330000 1.00000 0.00000
O    core   0.153508   0.093839 -24.269321  1.01848700 1.00000 0.00000
O    shel   0.152924   0.093839 -24.269321 -2.1330000 1.00000 0.00000
O    core   0.446487   0.300859 -21.235657  1.01848700 1.00000 0.00000
O    shel   0.445904   0.300859 -21.235657 -2.1330000 1.00000 0.00000
C    core   0.699142   0.300859 -21.235657  1.34353899 1.00000 0.00000
O    core   0.857382   0.268945 -20.469189  1.01848700 1.00000 0.00000
O    shel   0.857747   0.268872 -20.467419 -2.1330000 1.00000 0.00000
O    core   0.793555   0.332772 -22.002125  1.01848700 1.00000 0.00000
O    shel   0.793773   0.332846 -22.003895 -2.1330000 1.00000 0.00000
O    core   0.357354   0.516319 -14.401858  1.01848700 1.00000 0.00000
O    shel   0.357136   0.516245 -14.400088 -2.1330000 1.00000 0.00000
C    core   0.451768   0.548232 -15.168325  1.34353899 1.00000 0.00000
O    core   0.293527   0.580146 -15.934793  1.01848700 1.00000 0.00000
O    shel   0.293162   0.580220 -15.936563 -2.1330000 1.00000 0.00000
O    core   0.704422   0.548232 -15.168325  1.01848700 1.00000 0.00000
O    shel   0.705005   0.548232 -15.168325 -2.1330000 1.00000 0.00000
Ca   core   0.575455   0.424546 -18.201992  2.00000000 1.00000 0.00000
Ca   core   0.742121   0.257879 -18.201990  2.00000000 1.00000 0.00000
Ca   core   0.989495   0.010505 -24.269320  2.00000000 1.00000 0.00000
Ca   core   0.701768   0.798232 -15.168325  2.00000000 1.00000 0.00000
C    core   0.285101   0.714899 -15.168327  1.34353899 1.00000 0.00000
O    core   0.379515   0.746813 -15.934795  1.01848700 1.00000 0.00000
O    shel   0.379733   0.746886 -15.936565 -2.1330000 1.00000 0.00000
O    core   0.443342   0.682986 -14.401859  1.01848700 1.00000 0.00000
O    shel   0.443707   0.682912 -14.400089 -2.1330000 1.00000 0.00000
O    core   0.032447   0.714899 -15.168327  1.01848700 1.00000 0.00000
O    shel   0.031864   0.714899 -15.168327 -2.1330000 1.00000 0.00000
Ca   core   0.868434   0.631566 -15.168325  2.00000000 1.00000 0.00000
C    core   0.992121   0.507879 -18.201990  1.34353899 1.00000 0.00000
O    core   1.086535   0.539793 -18.968458  1.01848700 1.00000 0.00000
O    shel   1.086753   0.539866 -18.970228 -2.1330000 1.00000 0.00000
O    core   0.739467   0.507879 -18.201990  1.01848700 1.00000 0.00000
O    shel   0.738884   0.507879 -18.201990 -2.1330000 1.00000 0.00000
O    core   1.150362   0.475965 -17.435524  1.01848700 1.00000 0.00000
O    shel   1.150727   0.475892 -17.433752 -2.1330000 1.00000 0.00000
Ca   core   0.656162   0.343839 -24.269321  2.00000000 1.00000 0.00000
Ca   core   0.408788   0.591212 -18.201990  2.00000000 1.00000 0.00000
C    core   0.532475   0.467526 -21.235655  1.34353899 1.00000 0.00000
O    core   0.438061   0.435612 -20.469189  1.01848700 1.00000 0.00000
O    shel   0.437843   0.435538 -20.467417 -2.1330000 1.00000 0.00000
O    core   0.374234   0.499439 -22.002123  1.01848700 1.00000 0.00000
O    shel   0.373869   0.499513 -22.003893 -2.1330000 1.00000 0.00000
O    core   0.785129   0.467526 -21.235655  1.01848700 1.00000 0.00000
O    shel   0.785712   0.467526 -21.235655 -2.1330000 1.00000 0.00000
O    core   0.731041   0.642632 -17.435524  1.01848700 1.00000 0.00000
O    shel   0.730823   0.642558 -17.433752 -2.1330000 1.00000 0.00000
C    core   0.825455   0.674546 -18.201990  1.34353899 1.00000 0.00000
O    core   0.667214   0.706459 -18.968458  1.01848700 1.00000 0.00000
O    shel   0.666849   0.706533 -18.970228 -2.1330000 1.00000 0.00000
O    core   1.078109   0.674546 -18.201990  1.01848700 1.00000 0.00000
O    shel   1.078692   0.674546 -18.201990 -2.1330000 1.00000 0.00000
Ca   core   0.949141   0.550859 -21.235657  2.00000000 1.00000 0.00000
C    core   0.239495   0.260505 -24.269321  1.34353899 1.00000 0.00000
O    core   0.145082   0.228592 -23.502853  1.01848700 1.00000 0.00000
O    shel   0.144863   0.228518 -23.501083 -2.1330000 1.00000 0.00000
O    core   0.492149   0.260505 -24.269321  1.01848700 1.00000 0.00000
O    shel   0.492732   0.260505 -24.269321 -2.1330000 1.00000 0.00000
O    core   0.081255   0.292419 -25.035789  1.01848700 1.00000 0.00000
O    shel   0.080889   0.292493 -25.037560 -2.1330000 1.00000 0.00000
O    core  -0.179826   0.427172 -24.269321  1.01848700 1.00000 0.00000
O    shel  -0.180409   0.427172 -24.269321 -2.1330000 1.00000 0.00000
C    core   0.072828   0.427172 -24.269321  1.34353899 1.00000 0.00000
O    core   0.231069   0.395258 -23.502853  1.01848700 1.00000 0.00000
O    shel   0.231434   0.395185 -23.501083 -2.1330000 1.00000 0.00000
O    core   0.167242   0.459086 -25.035789  1.01848700 1.00000 0.00000
O    shel   0.167460   0.459159 -25.037560 -2.1330000 1.00000 0.00000
Ca   core   0.115808   0.384192 -21.235655  2.00000000 1.00000 0.00000
Ca   core   0.535101   0.964899 -15.168327  2.00000000 1.00000 0.00000
C    core   0.658788   0.841212 -18.201992  1.34353899 1.00000 0.00000
O    core   0.753201   0.873126 -18.968460  1.01848700 1.00000 0.00000
O    shel   0.753420   0.873200 -18.970230 -2.1330000 1.00000 0.00000
O    core   0.817029   0.809299 -17.435524  1.01848700 1.00000 0.00000
O    shel   0.817394   0.809225 -17.433754 -2.1330000 1.00000 0.00000
O    core   0.406134   0.841212 -18.201992  1.01848700 1.00000 0.00000
O    shel   0.405551   0.841212 -18.201992 -2.1330000 1.00000 0.00000
Ca   core   0.782475   0.717526 -21.235655  2.00000000 1.00000 0.00000
C    core   0.906162   0.593839 -24.269320  1.34353899 1.00000 0.00000
O    core   0.811748   0.561925 -23.502853  1.01848700 1.00000 0.00000
O    shel   0.811530   0.561851 -23.501081 -2.1330000 1.00000 0.00000
O    core   0.747921   0.625752 -25.035788  1.01848700 1.00000 0.00000
O    shel   0.747556   0.625826 -25.037558 -2.1330000 1.00000 0.00000
O    core   1.158816   0.593839 -24.269320  1.01848700 1.00000 0.00000
O    shel   1.159399   0.593839 -24.269320 -2.1330000 1.00000 0.00000
Ca   core   0.075455   0.924546 -18.201992  2.00000000 1.00000 0.00000
C    core   0.118434   0.881566 -15.168326  1.34353899 1.00000 0.00000
O    core   0.024021   0.849652 -14.401859  1.01848700 1.00000 0.00000
O    shel   0.023803   0.849579 -14.400089 -2.1330000 1.00000 0.00000
O    core   0.371088   0.881566 -15.168326  1.01848700 1.00000 0.00000
O    shel   0.371672   0.881566 -15.168326 -2.1330000 1.00000 0.00000
O    core  -0.039806   0.913479 -15.934794  1.01848700 1.00000 0.00000
O    shel  -0.040171   0.913553 -15.936564 -2.1330000 1.00000 0.00000
Ca   core   0.242121   0.757879 -18.201990  2.00000000 1.00000 0.00000
C    core   0.365808   0.634192 -21.235655  1.34353899 1.00000 0.00000
O    core   0.460222   0.666106 -22.002123  1.01848700 1.00000 0.00000
O    shel   0.460440   0.666179 -22.003893 -2.1330000 1.00000 0.00000
O    core   0.113154   0.634192 -21.235655  1.01848700 1.00000 0.00000
O    shel   0.112571   0.634192 -21.235655 -2.1330000 1.00000 0.00000
O    core   0.524049   0.602279 -20.469189  1.01848700 1.00000 0.00000
O    shel   0.524414   0.602205 -20.467417 -2.1330000 1.00000 0.00000
O    core   0.104728   0.768945 -20.469189  1.01848700 1.00000 0.00000
O    shel   0.104510   0.768872 -20.467417 -2.1330000 1.00000 0.00000
C    core   0.199142   0.800859 -21.235655  1.34353899 1.00000 0.00000
O    core   0.040901   0.832772 -22.002123  1.01848700 1.00000 0.00000
O    shel   0.040536   0.832846 -22.003893 -2.1330000 1.00000 0.00000
O    core   0.451796   0.800859 -21.235655  1.01848700 1.00000 0.00000
O    shel   0.452379   0.800859 -21.235655 -2.1330000 1.00000 0.00000
Ca   core   0.322828   0.677172 -24.269321  2.00000000 1.00000 0.00000
Ca   core   0.489495   0.510505 -24.269320  2.00000000 1.00000 0.00000
C    core   0.032475   0.967525 -21.235657  1.34353899 1.00000 0.00000
O    core   0.126888   0.999439 -22.002125  1.01848700 1.00000 0.00000
O    shel   0.127106   0.999513 -22.003895 -2.1330000 1.00000 0.00000
O    core   0.190715   0.935612 -20.469189  1.01848700 1.00000 0.00000
O    shel   0.191081   0.935538 -20.467419 -2.1330000 1.00000 0.00000
O    core  -0.220179   0.967525 -21.235657  1.01848700 1.00000 0.00000
O    shel  -0.220763   0.967525 -21.235657 -2.1330000 1.00000 0.00000
Ca   core   0.615808   0.884192 -21.235657  2.00000000 1.00000 0.00000
C    core   0.739495   0.760505 -24.269321  1.34353899 1.00000 0.00000
O    core   0.833909   0.792419 -25.035789  1.01848700 1.00000 0.00000
O    shel   0.834127   0.792493 -25.037560 -2.1330000 1.00000 0.00000
O    core   0.486841   0.760505 -24.269321  1.01848700 1.00000 0.00000
O    shel   0.486258   0.760505 -24.269321 -2.1330000 1.00000 0.00000
O    core   0.897736   0.728592 -23.502853  1.01848700 1.00000 0.00000
O    shel   0.898101   0.728518 -23.501083 -2.1330000 1.00000 0.00000
Ca   core   0.156162   0.843839 -24.269321  2.00000000 1.00000 0.00000
O    core   0.478415   0.895258 -23.502853  1.01848700 1.00000 0.00000
O    shel   0.478197   0.895185 -23.501083 -2.1330000 1.00000 0.00000
C    core   0.572828   0.927172 -24.269321  1.34353899 1.00000 0.00000
O    core   0.414588   0.959086 -25.035789  1.01848700 1.00000 0.00000
O    shel   0.414222   0.959159 -25.037560 -2.1330000 1.00000 0.00000
O    core   0.825482   0.927172 -24.269321  1.01848700 1.00000 0.00000
O    shel   0.826066   0.927172 -24.269321 -2.1330000 1.00000 0.00000

sbulkenergy -1023.042969

elements
covalent 25  0.0000
covalent 26  0.0000
covalent 27  0.0000
covalent 28  0.0000
covalent 30  0.0000
covalent 48  0.0000
end

species
Cd     core    2.000000
Mn     core    2.000000
Mg     core    2.000000
Zn     core    2.000000
Ni     core    2.000000
Co     core    2.000000
Fe     core    2.000000
Ca     core    2.000000
C      core    1.343539
O      core    1.018487
O      shel   -2.133000
end

buck intra     
O     core O     core  4030.30000     0.245497 0.0000000      0.000  2.500

buck     
Ca    core O     shel  2154.06000     0.289118 0.0000000      0.000 10.000

buck inter     
O     shel O     shel  64727.5050     0.198914  21.84357      0.000 15.000

buck     
Cd    core O     shel  4329.81000     0.256300 0.0000000      0.000 10.000

buck     
Mg    core O     shel  1039.58460     0.289329 0.0000000      0.000 10.000

buck     
Co    core O     shel  1095.59850     0.286300 0.0000000      0.000 10.000

buck     
Fe    core O     shel  2152.98610     0.265068 0.0000000      0.000 10.000

buck     
Mn    core O     shel  2000.93570     0.272681 0.0000000      0.000 10.000

buck     
Ni    core O     shel  1634.46190     0.266612 0.0000000      0.000 10.000

buck     
Zn    core O     shel  1029.39000     0.289100 0.0000000      0.000 10.000

morse intra bond
C     core O     core 5.0000000     2.5228      1.19820  0.0000

spring
O      52.739130     10000.000    

three bond intra
C     core O     core O     core 1.7765     120.00    

outofplane bond intra
C     cor O     cor O     cor O     cor 8.8279    

