opti conp prop phon comp
name chabazite
cell
9.421000   9.421000   9.421000  94.199994  94.199994  94.199994
fractional    9
Si   core  0.102192   0.331083   0.876169    4.000000 1.0000 0.00000
O1   core  0.261344   0.738656   0.000000    0.869020 1.0000 0.00000
O2   core  0.141729   0.858271   0.500000    0.869020 1.0000 0.00000
O3   core  0.246729   0.246729   0.890290    0.869020 1.0000 0.00000
O4   core  0.018968   0.018968   0.314454    0.869020 1.0000 0.00000
O1   shel  0.254283   0.745717   0.000000   -2.869020 1.0000 0.00000
O2   shel  0.135829   0.864171   0.500000   -2.869020 1.0000 0.00000
O3   shel  0.240510   0.240510   0.887279   -2.869020 1.0000 0.00000
O4   shel  0.012617   0.012617   0.318045   -2.869020 1.0000 0.00000
space
R -3 M          
name quartz
cell
4.914730   4.914730   5.406570  90.000000  90.000000 120.000000 
fractional    3
Si   core  0.46820000   0.00000000   0.33333333    4.000000
O    core  0.41310000   0.26610000   0.21310000    0.869020
O    shel  0.43152156   0.26644546   0.20449196   -2.869020
space
152
species  12
Si    core    4.000000
O     core    0.869020
O     shel   -2.869020
buck
Si   core O    shel    1280.000000 0.320520   10.66158  0.000 12.000
buck
O    shel O    shel   22764.000000 0.149000   27.88000  0.000 12.000
spring
O       74.920000
three
Si   core O    shel O    shel   2.097240 109.470000  2.200  2.200  3.800
