single conp mole

# Created by GDIS version 0.80.0
#

name iso_ribbon

cartesian
H1242a core  -17.447875    5.535062    6.024788
H1242c core  -16.010104    4.955449    6.086269
H1242b core  -16.944088    4.845717    7.319975
C1242 core  -16.929522    4.777054    6.357606
H1243b core  -16.470236    3.506442    4.059567
H2144'b core  -12.355347  -10.588399   18.964741
H2144c core  -11.795066  -10.691049   18.837835
H2442'b core  -20.477528  -10.182034    8.758536
H2442'a core  -21.819701  -10.122884    9.533925
H2442'c core  -20.491025  -10.352763   10.300505
H2442c core  -20.583916   -9.620524   11.445504
H2442b core  -20.611392  -10.469064   10.147438
H2442a core  -21.923243   -9.850633   10.697546
C2442' core  -20.818036   -9.790173    9.462794
C2442 core  -20.958428   -9.628195   10.504121
H2443c core  -20.821403   -9.187242    7.727327
H2144'c core  -13.843328  -10.346757   18.599348
H101'c core  -11.868040   -5.266928   18.516097
H101'b core  -11.729811   -4.421568   17.222908
H101'a core  -10.479068   -5.093875   17.847502
H101c core  -11.323742   -4.349039   17.247183
H101b core  -10.978663   -5.146562   18.532393
H101a core  -12.331682   -5.384380   17.811465
H102'c core  -11.319017   -8.842161   17.064664
H102'b core  -11.527852   -8.211959   18.466752
H102'a core  -10.155556   -8.083801   17.755622
H102c core  -10.701175   -8.099042   18.490682
H102b core  -10.762614   -8.850328   17.134928
H102a core  -12.039462   -8.183964   17.710803
C102 core  -11.173264   -8.010835   17.578260
C101 core  -11.318419   -5.257543   17.579503
S10' core  -11.350974   -6.475239   16.636525
S10  core  -10.607778   -6.470636   16.707435
O10  core  -11.270718   -6.593486   15.374086
O103 core  -10.347058   -4.215045   14.110995
H1243c core  -17.707137    2.570524    4.075498
H1243a core  -17.897969    4.106619    3.973421
H1244c core  -18.915036    3.359142    7.274466
H1244b core  -19.217179    2.511421    6.010734
H1244a core  -19.404730    4.050974    5.974893
C1244 core  -18.892660    3.319397    6.371573
C1243 core  -17.376886    3.396969    4.355796
C1241 core  -17.440726    3.456545    5.876710
H153 core   -8.209239  -10.779120    8.988807
H1542c core   -7.292373  -10.706340    5.601688
H1542b core   -8.603451  -11.000993    4.825893
H1542a core   -7.537628  -12.115020    4.999803
H1543c core  -10.243561  -12.491491    5.698392
H1543b core   -9.982854  -13.165046    7.071433
H1543a core   -9.135614  -13.568856    5.835637
H1544c core   -8.136991  -12.935101    8.242431
H1544b core   -6.953221  -12.012343    7.850774
H1544a core   -7.251000  -13.287482    7.018814
C1544 core   -7.666104  -12.518771    7.407478
C1543 core   -9.616848  -12.823120    6.304845
C1542 core   -8.000215  -11.402636    5.489402
C1541 core   -8.609083  -11.842710    6.624222
C154 core   -9.268593  -10.581833    7.316297
H155 core  -10.660447  -10.329840    5.927326
H2142c core  -15.001414  -11.636582   17.777391
H2142b core  -14.170734  -10.621927   18.606416
H2142a core  -14.338100  -12.080282   19.107854
H2143'b core  -12.235376  -13.613646   17.061805
H2143c core  -12.018299  -13.586952   16.873822
H2143b core  -13.536846  -13.667244   16.567696
H2143a core  -13.016057  -13.979122   17.995503
H2144b core  -10.968627  -11.768284   18.087165
H2144a core  -11.803078  -12.160604   19.335059
H2142'c core  -14.325820  -13.042645   16.512189
H2142'b core  -15.050553  -11.912615   17.290314
H2142'a core  -14.573185  -13.185792   18.037270
H2143'c core  -11.281575  -12.719869   17.896832
H2143'a core  -12.427355  -13.496697   18.596529
H2144'a core  -13.456854  -11.512062   19.547520
C2144' core  -13.172452  -11.027467   18.738100
C2143' core  -12.131225  -12.913725   17.813895
C2142' core  -14.362406  -12.571553   17.294082
C2144 core  -11.800136  -11.566184   18.559628
C2143 core  -12.906663  -13.368998   17.269220
C2142 core  -14.252833  -11.582953   18.304672
C2141 core  -13.030036  -11.906646   17.585575
H213 core  -10.959322  -11.914094   15.929084
C214 core  -12.752866  -11.122685   16.309568
C213 core  -11.617156  -11.233778   15.677901
H21a core   -9.741714   -9.853667   13.463167
H21b core   -9.415272  -11.082299   14.352352
O221 core  -11.552659  -10.052553   11.286994
H2243c core  -10.083033  -15.560477   13.817596
O231 core  -13.648382   -9.363965   10.030797
H233 core  -17.183403  -11.636252   11.182951
C233 core  -16.317717  -11.626100   10.838581
C232 core  -15.571414  -10.500175   10.740285
H235 core  -14.156645  -13.682539    9.380298
C234 core  -15.849348  -12.748418   10.225598
H2242'c core   -8.926812  -15.479966   10.020682
H2242c core   -8.046723  -15.180015   10.839202
H2242b core   -9.245647  -15.546412    9.925318
H2242a core   -8.507236  -16.656461   10.718442
H2243'c core   -8.567263  -15.165468   13.478961
H2243b core   -8.572077  -15.403405   13.503943
H2243a core   -9.251214  -16.791809   13.371899
H2244'c core  -11.568672  -16.407812   12.141425
H2244c core  -11.327783  -16.192739   10.707827
H2244b core  -11.663748  -16.137138   12.221160
H2244a core  -10.817984  -17.308833   11.657073
H2242'b core  -10.322450  -16.156454   10.060781
H2242'a core   -9.071315  -16.929061   10.555222
H2243'b core   -7.771002  -15.009431   12.156535
H2243'a core   -8.080934  -16.423964   12.713007
H2244'b core  -10.876615  -16.041797   13.480501
H2244'a core  -10.431314  -17.304618   12.697216
C235 core  -14.479383  -12.815122    9.733852
C231 core  -14.355391  -10.576425   10.159136
H22b core  -12.145593  -12.498938    8.573273
H22a core  -11.922272  -11.006781    8.934200
C236 core  -13.697725  -11.702172    9.783854
H223 core  -11.101381  -14.137323    9.859603
C2244' core  -10.666119  -16.272198   12.814746
C2243' core   -8.319672  -15.437217   12.412221
C2242' core   -9.575727  -16.101809   10.532255
C2244 core  -11.006416  -16.314772   11.574517
C2243 core   -9.267754  -15.835712   13.181763
C2242 core   -8.748490  -15.737435   10.819553
C2241 core   -9.718040  -15.498471   11.834073
C223 core  -10.900830  -13.529254   10.626636
C22  core  -12.216020  -11.869357    9.355053
C222 core  -11.374177  -12.263755   10.483988
H225 core   -9.389600  -13.171911   13.498627
C224 core  -10.184529  -13.967377   11.674805
C225 core   -9.897810  -12.963014   12.670216
C221 core  -11.113589  -11.259631   11.470111
C226 core  -10.372045  -11.633164   12.550696
C21  core  -10.128477  -10.728288   13.744104
H243 core  -19.309567   -6.596989    8.392881
H2443'c core  -21.076557   -7.886573    7.878194
H2443b core  -20.832664   -7.635938    7.728635
H2443a core  -22.121128   -8.421415    8.088675
H2444'c core  -21.151741   -7.095091   11.275898
H2444c core  -21.323801   -6.437698    9.960380
H2444b core  -21.049995   -7.122386   11.324863
H2444a core  -22.361822   -7.425733   10.554274
H2443'b core  -21.293344   -6.734604    8.894242
H2443'a core  -22.347207   -7.865890    8.768362
H2444'b core  -20.779890   -8.506363   11.801856
H2444'a core  -22.186221   -8.248525   11.200294
C2444' core  -21.198137   -8.024208   11.077613
C2443' core  -21.346909   -7.693250    8.709050
C2444 core  -21.354493   -7.236350   10.348782
C2443 core  -21.111545   -8.530961    8.177131
C2441 core  -20.645445   -8.374053    9.693614
H245 core  -18.633749   -9.541297   11.127798
H253 core  -18.599037   -0.856789    9.985482
H2542c core  -21.352043   -3.729017    8.057597
H2542b core  -20.842858   -3.028548    6.770638
H2542a core  -22.154139   -2.550020    7.447018
H2543c core  -20.682528   -0.826958   10.105768
H2543b core  -21.237264   -2.267251   10.263780
H2543a core  -22.045922   -1.207111    9.471021
H2544c core  -19.938583   -0.865890    6.744969
H2544b core  -19.869716    0.017039    8.018818
H2544a core  -21.242597   -0.308465    7.373646
C2544 core  -20.414999   -0.717751    7.604255
C2543 core  -21.156480   -1.556044    9.624956
C2542 core  -21.306367   -2.892472    7.656957
H255 core  -19.137893   -4.145703    7.614164
C255 core  -18.605231   -3.619671    8.250496
C2541 core  -20.448765   -1.978296    8.460400
C254 core  -19.055089   -2.457728    8.750015
H2644c core  -19.945616   -1.181592   13.797529
H2644b core  -19.407824    0.272792   13.850779
H2644a core  -20.361877   -0.242753   14.960259
C2644 core  -19.675164   -0.495148   14.372282
H2643a core  -19.696648   -1.817862   16.664880
H2642c core  -17.686593    0.946640   15.562861
H2642b core  -17.275521   -0.056833   16.672261
H2642a core  -18.717285    0.514654   16.638656
H2643c core  -18.247645   -2.359928   16.775111
H2643b core  -19.189194   -2.885102   15.659888
C2643 core  -18.918589   -2.039287   16.139088
C2642 core  -17.999694    0.201316   16.100678
C2641 core  -18.414174   -0.946138   15.162894
H263 core  -16.158875   -2.191387   15.982405
C264 core  -17.235676   -1.383849   14.343245
H2742c core  -14.721952   -7.278798   19.495247
H2742b core  -15.910241   -7.997274   18.803610
H2742a core  -16.113884   -7.310309   20.179580
H2743c core  -16.075978   -3.955091   19.121821
H2743b core  -14.835152   -4.679245   19.707884
H2743a core  -16.226417   -4.866277   20.368455
H2744c core  -17.722806   -6.727144   17.732215
H2744b core  -17.772625   -5.179152   17.821591
H2744a core  -18.051306   -6.038149   19.082804
H2742'c core  -16.267858   -7.953877   18.709306
H2742'b core  -17.518701   -7.232460   18.141937
H2742'a core  -17.234460   -7.208752   19.666806
H2743'c core  -14.621840   -4.957583   19.762268
H2743'b core  -14.240151   -6.441133   19.516910
H2743'a core  -15.326498   -6.082987   20.565468
H2744'c core  -17.609287   -4.664963   18.246129
H2744'b core  -16.350871   -3.909638   18.748392
H2744'a core  -17.238237   -4.692011   19.752097
C263 core  -16.090535   -2.030713   14.970284
H26b core  -13.474291   -2.647406   15.731112
H26a core  -13.156206   -3.289091   14.355043
C262 core  -15.018302   -2.429418   14.320197
C2744' core  -16.934304   -4.757269   18.823637
C2743' core  -14.960525   -5.757672   19.660479
C2742' core  -16.613160   -7.237985   18.878496
C2744 core  -17.475002   -6.038388   18.349475
C2743 core  -15.798502   -4.745123   19.528709
C2742 core  -15.507293   -7.244779   19.352108
H275 core  -15.040285   -3.796543   17.242917
C275 core  -14.879151   -4.604952   16.754797
C2741 core  -16.009192   -5.943802   18.620159
C26  core  -13.891914   -3.145193   15.029160
C276 core  -14.269277   -4.526938   15.604226
H273 core  -15.582513   -7.762277   16.825177
C274 core  -15.328631   -5.830480   17.282389
C273 core  -15.182986   -6.892615   16.533964
C271 core  -14.009976   -5.611737   14.758230
H215 core  -14.501317   -9.975879   16.483188
H27b core  -15.296062   -8.567044   14.340399
H27a core  -14.197639   -7.849913   13.512054
C272 core  -14.547505   -6.910243   15.316304
C27  core  -14.411771   -8.146698   14.423748
C215 core  -13.645034  -10.101048   15.953396
C216 core  -13.344872   -9.226064   14.876155
C212 core  -11.317739  -10.422125   14.592723
C211 core  -12.194886   -9.326275   14.221915
H202'c core   -9.501775   -0.051472   14.312351
H202b core   -9.408406   -0.209365   14.277534
H301'c core  -13.990609   -0.006798   14.659207
H301'b core  -14.248760    1.461268   15.089190
H301'a core  -12.803388    0.982734   14.792986
H301c core  -13.475371    1.516049   15.220991
H301b core  -13.718139    0.016822   14.905161
H301a core  -14.582569    1.104867   14.214912
C301 core  -13.732546    1.008896   14.314993
H401'c core  -18.527196   -5.066465   14.782695
H401'b core  -17.003031   -5.164878   15.054277
H401'a core  -17.739382   -6.325788   14.335572
H401c core  -17.049763   -5.802985   14.997419
H401b core  -18.568228   -5.586305   14.765953
H401a core  -17.566030   -4.442156   14.460450
C401 core  -17.679314   -5.387536   14.345256
H402'b core  -19.372869   -4.312485   12.159334
H402c core  -19.526920   -4.953770   12.232681
H602'c core   -6.821422   -9.367940   15.574066
H602'b core   -8.368028   -9.490160   15.571606
H602'a core   -7.686778   -8.279885   16.262902
H602c core   -8.465802   -9.147170   15.915035
H602b core   -6.975021   -8.836818   16.210182
H602a core   -7.375746   -9.520069   14.876051
C602 core   -7.702618   -8.820605   15.641212
S60  core   -7.900564   -7.149043   14.737569
H601c core   -5.627091   -6.599055   14.509115
H1342c core  -14.923439    0.624391    1.645090
H1342b core  -15.957470   -0.503721    1.390485
H1342a core  -15.146820    0.087033    0.207128
H1343c core  -11.934023   -1.142926    1.060886
H1343b core  -12.553554    0.250517    1.345935
H1343a core  -12.724678   -0.403358   -0.050172
H1344c core  -15.430160   -2.548289    0.867027
H1344b core  -14.012238   -3.168333    0.757901
H1344a core  -14.516874   -2.189183   -0.334505
H133 core  -12.064018   -2.354816    2.790404
C1344 core  -14.466807   -2.373522    0.663543
C1343 core  -12.727237   -0.538689    0.930893
C1342 core  -15.050853   -0.077223    1.137488
H1442'c core  -10.833812   -5.437734    1.037637
H1442c core   -9.978362   -5.061723    1.367347
H1442a core   -9.731711   -6.143520    0.283339
H1443'c core  -10.459998   -8.889134    2.122574
H1443c core  -11.601424   -7.808353    1.474457
H1443b core  -10.619789   -8.760469    2.207008
H1443a core  -10.308446   -8.286889    0.762699
H1444'c core   -8.172031   -6.474341    2.848016
H1444c core   -8.446895   -7.888493    2.870425
H1444b core   -8.117124   -6.424573    2.477426
H1442'b core  -11.681572   -6.736746    1.026623
H1442'a core  -10.400577   -6.639119    0.157159
H1442b core  -11.162196   -5.911825    0.836466
H1443'b core   -9.207208   -8.570639    2.979883
H1443'a core   -9.099879   -8.604875    1.432611
H1444'b core   -8.794163   -5.305160    2.040331
H1444'a core   -8.192574   -6.527357    1.297792
C1341 core  -13.978664   -1.219670    1.472085
C133 core  -12.859958   -2.189092    3.414556
C132 core  -12.846275   -2.605494    4.744573
O131 core  -13.931442   -3.054574    6.808209
H135 core  -15.828391   -0.846708    3.435911
C134 core  -13.972677   -1.587595    2.894652
H23b core  -15.335818   -8.690320   11.736760
H23a core  -16.571528   -9.454688   12.280671
H13b core  -11.436636   -2.957638    6.245130
H13a core  -10.760585   -2.747319    4.864875
C1444' core   -8.544275   -6.000237    2.008334
C1443' core   -9.563834   -8.266543    2.239820
C1442' core  -10.777004   -6.536060    1.019249
C1444 core   -8.428613   -7.156318    2.605637
C1443 core  -10.564662   -7.982238    1.620364
C1442 core   -9.919246   -5.755223    1.143202
H145 core  -10.567479   -4.398715    3.242668
C145 core  -10.877384   -5.072013    3.940724
C1441 core   -9.892363   -6.841831    2.174137
C13  core  -11.548855   -3.181843    5.253531
C245 core  -18.299793   -8.739231   10.487705
C23  core  -16.095728   -9.219261   11.403043
C135 core  -15.023108   -1.368749    3.763736
C131 core  -13.905920   -2.524010    5.535124
H1642c core   -3.517699   -7.113207   11.577215
H1642b core   -3.429482   -5.703984   10.934686
H1642a core   -2.413354   -6.804971   10.532131
H1643c core   -4.511250   -8.599070    8.580667
H1643b core   -4.167284   -8.989676   10.041970
H1643a core   -3.046470   -8.508268    9.083398
H1644c core   -3.961353   -5.150956    8.854844
H1644b core   -4.459511   -6.201468    7.827894
H1644a core   -2.967405   -6.178157    8.251903
C1644 core   -3.885710   -6.033364    8.557865
C1643 core   -3.970603   -8.307565    9.273104
C1642 core   -3.275360   -6.544625   10.869463
H12b core  -17.028685   -1.550414    5.379031
H12a core  -16.299633   -2.155569    6.607357
C136 core  -14.993653   -1.824310    5.030074
H123 core  -17.336478    0.880268    5.204608
C246 core  -16.975205   -8.428033   10.556767
O241 core  -15.120447   -7.018049    9.843366
C244 core  -19.168707   -8.093329    9.675662
C146 core  -11.437196   -4.695382    5.124882
O141 core  -12.240275   -5.188829    7.224263
H143 core  -11.065302   -8.371283    4.375794
C144 core  -10.648872   -6.413570    3.560354
C143 core  -11.066617   -7.367725    4.535325
C141 core  -11.833879   -5.577735    6.030574
C243 core  -18.680490   -7.077945    8.953514
C241 core  -16.463281   -7.392904    9.770403
C123 core  -16.694007    0.939200    5.969385
C12  core  -16.184370   -1.459588    5.870875
H1142c core  -11.361601    5.002407    6.915340
H1142b core  -10.517693    4.240332    5.860008
H1142a core  -10.025337    5.605423    6.408047
H1143'b core   -8.608415    3.298996    6.332453
H1143c core   -8.333992    3.380868    6.438876
H1143b core   -7.850139    3.374291    7.912850
H1143a core   -7.898261    4.705887    7.117913
H1144c core   -9.396363    4.433629    9.642441
H1144b core  -10.681747    5.132377    9.126849
H1144a core   -9.287719    5.712521    8.771200
H1142'c core  -10.821324    5.347216    8.844881
H1142'b core  -11.381851    5.194782    7.406281
H1142'a core  -10.116175    6.055986    7.658480
H1143'c core   -9.885811    3.972925    5.766459
H1143'a core   -8.694224    4.845279    6.241721
H1144'c core   -8.015182    3.407039    8.486581
H1144'b core   -8.876183    4.156473    9.537064
H1144'a core   -8.085889    4.956693    8.468418
C1641 core   -4.129003   -6.909009    9.758666
H1744'b core   -4.059619   -0.917131   10.374398
H1742c core   -4.238806   -0.699517   10.520340
H1742b core   -4.831437    0.686833   10.154931
H1742a core   -3.429670    0.279749    9.629592
H1744'c core   -3.781454   -2.039862    9.340388
H1743c core   -4.411603   -2.119630    7.410252
H1743b core   -3.954879   -2.370918    8.871323
H1743a core   -3.174670   -1.373340    7.975750
H1744c core   -5.613930    1.060375    7.897313
H1744b core   -5.352844   -0.031612    6.826440
H1744a core   -4.162766    0.745945    7.447986
H1742'c core   -5.180357    1.055862    9.726620
H1742'b core   -5.657547    1.205838    8.257913
H1742'a core   -4.141609    1.233951    8.587824
H1743'c core   -5.447564   -0.625848    6.596019
H1743'b core   -4.676476   -1.914307    6.985482
H1743'a core   -3.909373   -0.579587    6.793597
H1744'a core   -3.052006   -0.675689    9.219741
C1744' core   -3.900029   -1.022260    9.443514
C1743' core   -4.653230   -1.031588    7.177590
C1742' core   -5.004879    0.912858    8.665435
C1744 core   -4.993458    0.266794    7.475796
C1743 core   -4.018778   -1.756199    8.220525
C1742 core   -4.396166    0.037648    9.756537
H163 core   -5.347123   -4.825410   10.785839
C164 core   -5.663957   -6.785616   10.127668
C1144' core   -8.455086    4.059961    8.587726
C1143' core   -9.208252    4.070086    6.343836
C1142' core  -10.492466    5.284228    7.970475
C1144 core   -9.705782    4.868138    8.935514
C1143 core   -8.307855    3.820814    7.194894
C1142 core  -10.491195    4.844191    6.637678
C122 core  -15.993309   -0.077878    6.545412
O121 core  -14.521629   -0.933011    8.097049
H125 core  -15.568597    3.387731    7.859167
C124 core  -16.516064    2.260016    6.453295
H165 core   -6.481367   -8.561512    9.737569
H24b core  -17.140016   -5.567078    7.075376
H24a core  -15.830642   -5.420428    7.894305
C242 core  -17.270443   -6.646789    8.922380
H14b core  -12.672729   -8.717440    6.260595
H14a core  -12.632058   -7.693312    7.425168
C142 core  -11.637072   -6.990203    5.724375
H15b core   -8.525162   -9.337625   10.960854
H15a core   -9.709275   -8.335800   10.997086
C15  core   -8.934312   -8.630314   10.478176
C153 core   -8.902425  -10.191722    8.529027
C155 core  -10.344353   -9.954896    6.770789
C14  core  -12.069789   -8.111324    6.723787
H501'c core   -7.321096   -6.751006    5.772715
H501'b core   -8.761832   -7.132290    6.203374
H501'a core   -7.655444   -6.947237    7.274867
H501c core   -8.529423   -7.315586    6.824237
H501b core   -7.122813   -6.986572    6.259037
H501a core   -8.382706   -6.334657    5.631261
H502'c core   -7.309668   -3.276089    6.917590
H502'b core   -6.680217   -4.314139    5.951685
H502c core   -6.325695   -4.475229    6.465524
H502b core   -7.120026   -3.434714    7.298022
C24  core  -16.819667   -5.459313    8.019090
H402'c core  -18.310516   -4.587181   11.062516
H402'a core  -18.920420   -5.766960   11.864877
H402b core  -18.606499   -5.101037   10.992593
H402a core  -18.356942   -3.959167   12.012738
C165 core   -6.680831   -7.683228   10.098226
H601'c core   -6.401552   -6.169315   13.098879
H601'b core   -5.499123   -7.177230   13.858212
H601b core   -6.472526   -5.891581   13.417349
H601a core   -6.083613   -7.384191   13.251267
C125 core  -15.639200    2.448591    7.512998
C121 core  -15.146464    0.132299    7.595946
C1141 core   -9.708301    4.078152    7.700393
C163 core   -6.019768   -5.512319   10.589237
C1741 core   -4.914001   -0.634678    8.588682
C253 core  -18.250179   -1.736388    9.609543
H25b core  -16.217316   -0.387904   10.581106
H25a core  -15.099853   -1.455452   10.446622
C252 core  -16.968490   -2.203513    9.941348
H265 core  -17.900669   -0.784480   12.578641
H175 core   -7.412964   -0.161980    7.621154
C174 core   -6.337633   -1.305446    8.986579
H16b core   -7.103855   -3.602522   12.176867
H16a core   -8.598470   -3.857062   11.847426
C162 core   -7.386413   -5.139047   10.966724
H173 core   -5.637441   -2.467641   10.567312
H115 core   -9.034169    1.491987    7.406752
C114 core  -10.530567    2.792363    7.975762
H17b core   -9.661858   -0.978999    6.917830
H17a core  -10.584049   -1.711063    7.928230
H113 core  -12.313221    3.689881    8.364091
H11b core  -14.214873    2.526157    9.625672
H11a core  -14.167347    0.999560    9.898523
C126 core  -14.922447    1.409643    8.071930
C601 core   -6.337598   -6.750926   13.909722
C166 core   -7.953325   -7.453928   10.523088
C402 core  -18.619431   -4.863913   11.991329
C256 core  -17.341187   -4.125208    8.631382
H502'a core   -6.737957   -4.606776    7.474008
C502 core   -7.160783   -4.258112    6.802161
C501 core   -7.961695   -6.585144    6.486799
H502a core   -7.719318   -3.994516    5.981467
C156 core  -10.878781   -8.811493    7.333394
C152 core   -9.400882   -9.057918    9.150996
C151 core  -10.401548   -8.339488    8.503282
S50' core   -8.453048   -4.808709    6.589218
S50  core   -7.859512   -5.340234    7.534112
C251 core  -16.532560   -3.416091    9.503317
S40' core  -17.411027   -4.717790   13.043606
S40  core  -17.529709   -5.953488   12.848684
C161 core   -8.316022   -6.154656   11.015253
S60' core   -7.692202   -7.952786   13.951385
C11  core  -14.007317    1.674925    9.153649
C113 core  -11.829325    2.824487    8.370667
C17  core   -9.928417   -0.980937    7.897515
C115 core   -9.942929    1.532349    7.843474
C173 core   -6.479368   -2.222398   10.026409
C16  core   -7.721224   -3.757422   11.430653
C175 core   -7.483951   -0.893755    8.362297
C265 core  -17.164928   -1.233520   13.003926
C25  core  -16.063048   -1.351964   10.758068
H201'c core   -7.392228    1.712195   11.752900
H201'b core   -8.214024    1.441961   10.465035
H201'a core   -7.561036    0.261083   11.230639
H201c core   -7.824551    0.868143   10.418029
H201b core   -7.155495    1.228786   11.770483
H201a core   -8.483870    1.914314   11.355065
H202'b core   -8.435032    1.070716   14.212176
H202'a core   -8.189022   -0.297247   13.522886
H202c core   -7.955691    0.296453   14.076558
H202a core   -9.152236    1.246636   13.807279
H302'c core  -12.481528    3.406134   12.815191
H302'b core  -12.519555    2.583442   11.500270
H302'a core  -11.522410    2.201571   12.625757
H302c core  -11.782264    2.394293   11.726259
H302b core  -12.035938    3.188896   13.033980
H302a core  -11.734317    2.409635   11.766838
C302 core  -12.510533    2.447125   12.503284
S30' core  -14.051378    1.282492   13.340845
C202 core   -8.919727    0.421475   13.740207
C201 core   -8.022817    1.101165   11.282263
C266 core  -16.127344   -1.613743   12.264148
C176 core   -8.729631   -1.423346    8.677817
C172 core   -7.695243   -2.751975   10.348580
C116 core  -10.619366    0.354735    8.216066
C112 core  -12.514087    1.647992    8.816027
O60  core   -9.032580   -7.229146   13.776118
O271 core  -13.404031   -5.577979   13.532260
O211 core  -11.783102   -8.518441   13.217717
O161 core   -9.603332   -5.919914   11.398541
O1   core  -12.337614   -6.337726   11.117440
O40  core  -16.169208   -5.540265   12.405565
O251 core  -15.362366   -3.921877    9.872929
O50  core   -9.245086   -4.837308    7.872868
O151 core  -10.887701   -7.234785    9.073716
Eu4  core  -10.841034   -5.095863    9.628367
Eu2  core  -14.129235   -4.859054   11.470841
C0   core  -10.876006   -3.513324   13.156920
Eu3  core  -11.108402   -6.324031   13.175172
C111 core  -11.860148    0.396180    8.765656
C171 core   -8.824890   -2.350507    9.744459
C261 core  -15.047626   -2.244131   12.917573
S20' core   -9.378148    0.650254   12.250369
S20  core   -8.891917   -0.256404   12.081605
S30  core  -12.649408    0.960499   13.331519
O30  core  -12.955547    0.038151   12.305256
O20  core  -10.190938   -0.155583   11.390698
O261 core  -13.922689   -2.678670   12.211402
O171 core  -10.017584   -2.898642   10.050480
O111 core  -12.426096   -0.686122    9.261607
O102 core  -10.860945   -2.257919   13.272339
O101 core  -11.435122   -4.088438   12.134196
O2   core  -12.712031   -3.712481    9.818824
Eu1  core  -11.886379   -1.843758   11.192805
H601'a core   -6.363585   -6.160817   14.649691

