# 
# Keywords:
# 
single conp prop compare 
# 
# Options:
# 
cell
   4.211200  4.211200 4.211200  90.000000  90.000000  90.000000
fractional     9
Mg    core 0.0 0.0 0.0 2.00000000 1.00000 0.00000             
O     core 1/2 1/2 1/2 0.84819000 1.00000 0.00000 
O     shel 1/2 1/2 1/2 -2.84819000 1.00000 0.00000
space
F M 3 M
buck     
Mg    core O     shel  1428.5000     0.294530 .00000E+00  0.000 10.000
buck     
O     shel O     shel  22764.000     0.149000 27.880      0.000 10.000
spring
O      74.920380  
