opti conp rfo molmec phonon comp full noden prop 

# Created by GDIS version 0.91.0
#

name model_0


dump model_0.res

cell
8.950666 5.452931 7.153354  90.000000 90.000000 90.000000
fractional
Ba   core     0.186858    0.250000    0.158885    2.0000000  1.0000000
S    core     0.444198    0.750000    0.190863    1.3600000  1.0000000
O    core     0.595649    0.750000    0.115713   -0.8400000  1.0000000
O    core     0.328231    0.750000    0.046345   -0.8400000  1.0000000
O    core     0.424245    0.966092    0.309913   -0.8400000  1.0000000

space
P N M A

species
Ba     core    2.000000            
S      core    1.360000            
O      core   -0.840000
end

buck     
O     core Ba    core  4204.7937     0.290700 .00000E+00  0.000 10.000
buck inter     
O     core O     core  103585.02     0.200000 25.980      0.000 15.000
morse intra bond
O     core S     core 5.0000000     1.2000      1.52029  0.0000
three bond intra
S     core O     core O     core 7.1524     109.47    

print 1
