# 
# Keywords:
# 
opti conp mole comp 
# 
# Options:
# 
cell
   8.018030   5.912759   8.554727  90.000000 124.086466  90.000000
fractional    9
C     core 0.0830040 0.0170135 0.3291054 0.00000000 1.00000 0.00000             
C     core 0.1123820 0.1636948 0.2196271 0.00000000 1.00000 0.00000             
H     core 0.1635750 0.3922634 0.9764057 0.00000000 1.00000 0.00000             
C     core 0.0472533 0.1034587 0.0367162 0.00000000 1.00000 0.00000             
H     core 0.1954095 0.3086447 0.2683112 0.00000000 1.00000 0.00000             
C     core 0.0766313 0.2501400 0.9272378 0.00000000 1.00000 0.00000             
H     core 0.1185448 0.0749161 0.4566488 0.00000000 1.00000 0.00000             
C     core 0.9884971 0.8100960 0.2556730 0.00000000 1.00000 0.00000             
H     core 0.9638986 0.7010980 0.3331743 0.00000000 1.00000 0.00000             
space
P 1 21/N 1      
species   2
C      core    0.000000            
H      core    0.000000            
lenn epsilon 12  6 inter     
C     core C     core   0.169161        0.00000      0.000  0.095
lenn epsilon 12  6 inter     
H     core C     core   0.138642        0.00000      0.000  0.015
harmonic intra bond
C     core C     core  45.5631      1.39000      0.00000    
harmonic intra bond
H     core C     core  30.3754      1.02000      0.00000    
three bond intra
C     core C     core C     core 4.3393     120.00    
torsion bond intra
C     cor C     cor C     cor C     cor .54242      -2 0.0000    
