# 
# Keywords:
# 
single conp mole comp full nosym                                                
# 
# Options:
# 
cell
   8.018030   5.912759   8.554727  90.000000 124.086466  90.000000
fractional   36
C     core 0.0830040 0.0170134 0.3291053 0.00000000 1.00000 0.00000             
C     core 0.4169960 0.5170135 0.1708946 0.00000000 1.00000 0.00000             
C     core 0.9169959 0.9829864 0.6708946 0.00000000 1.00000 0.00000             
C     core 0.5830040 0.4829865 0.8291054 0.00000000 1.00000 0.00000             
C     core 0.1123820 0.1636948 0.2196271 0.00000000 1.00000 0.00000             
C     core 0.3876180 0.6636948 0.2803729 0.00000000 1.00000 0.00000             
C     core 0.8876179 0.8363051 0.7803728 0.00000000 1.00000 0.00000             
C     core 0.6123820 0.3363052 0.7196271 0.00000000 1.00000 0.00000             
H     core 0.1635749 0.3922634 0.9764057 0.00000000 1.00000 0.00000             
H     core 0.3364250 0.8922634 0.5235943 0.00000000 1.00000 0.00000             
H     core 0.8364250 0.6077365 0.0235942 0.00000000 1.00000 0.00000             
H     core 0.6635750 0.1077366 0.4764057 0.00000000 1.00000 0.00000             
C     core 0.0472532 0.1034586 0.0367162 0.00000000 1.00000 0.00000             
C     core 0.4527467 0.6034587 0.4632838 0.00000000 1.00000 0.00000             
C     core 0.9527467 0.8965412 0.9632837 0.00000000 1.00000 0.00000             
C     core 0.5472533 0.3965413 0.5367162 0.00000000 1.00000 0.00000             
H     core 0.1954095 0.3086447 0.2683111 0.00000000 1.00000 0.00000             
H     core 0.3045905 0.8086447 0.2316888 0.00000000 1.00000 0.00000             
H     core 0.8045904 0.6913552 0.7316888 0.00000000 1.00000 0.00000             
H     core 0.6954095 0.1913553 0.7683112 0.00000000 1.00000 0.00000             
C     core 0.0766313 0.2501400 0.9272378 0.00000000 1.00000 0.00000             
C     core 0.4233687 0.7501400 0.5727622 0.00000000 1.00000 0.00000             
C     core 0.9233686 0.7498599 0.0727621 0.00000000 1.00000 0.00000             
C     core 0.5766313 0.2498600 0.4272378 0.00000000 1.00000 0.00000             
H     core 0.1185448 0.0749160 0.4566487 0.00000000 1.00000 0.00000             
H     core 0.3814552 0.5749161 0.0433512 0.00000000 1.00000 0.00000             
H     core 0.8814551 0.9250839 0.5433512 0.00000000 1.00000 0.00000             
H     core 0.6185448 0.4250839 0.9566488 0.00000000 1.00000 0.00000             
C     core 0.9884970 0.8100959 0.2556729 0.00000000 1.00000 0.00000             
C     core 0.5115029 0.3100960 0.2443270 0.00000000 1.00000 0.00000             
C     core 0.0115028 0.1899040 0.7443270 0.00000000 1.00000 0.00000             
C     core 0.4884971 0.6899040 0.7556730 0.00000000 1.00000 0.00000             
H     core 0.9638986 0.7010979 0.3331742 0.00000000 1.00000 0.00000             
H     core 0.5361014 0.2010980 0.1668257 0.00000000 1.00000 0.00000             
H     core 0.0361013 0.2989019 0.6668257 0.00000000 1.00000 0.00000             
H     core 0.4638986 0.7989020 0.8331743 0.00000000 1.00000 0.00000             
species   2
C      core    0.000000            
H      core    0.000000            
lenn epsilon 12  6 inter     
C     core C     core   0.169161        0.00000      0.000  0.095
lenn epsilon 12  6 inter     
H     core C     core   0.138642        0.00000      0.000  0.015
harmonic intra bond
C     core C     core  45.5631      1.39000      0.00000    
harmonic intra bond
H     core C     core  30.3754      1.02000      0.00000    
three bond intra
C     core C     core C     core 4.3393     120.00    
torsion bond intra
C     cor C     cor C     cor C     cor .54242      -2 0.0000    
dump napth_full.gin                
