opti molmec conp
cart
C    4.481   0.256  -0.000   -0.08110000        
H    4.550   0.894   0.877    0.01600000        
H    4.550   0.894  -0.877    0.01600000        
H    5.345  -0.401   0.000    0.01600000        
C    3.177  -0.541   0.000    0.03480000        
H    3.154  -1.194   0.870   -0.00250000        
H    3.154  -1.194  -0.870   -0.00250000        
C    1.932   0.347  -0.000    0.01350000        
H    1.958   1.000   0.870   -0.00030000        
H    1.958   1.000  -0.871   -0.00030000        
C    0.623  -0.445  -0.000    0.00760000        
H    0.598  -1.098   0.871   -0.00860000        
H    0.598  -1.098  -0.871   -0.00860000        
C   -0.623   0.445   0.000    0.00760000        
H   -0.598   1.098   0.871   -0.00860000        
H   -0.598   1.098  -0.871   -0.00860000        
C   -1.932  -0.347   0.000    0.01350000        
H   -1.958  -1.000   0.871   -0.00030000        
H   -1.958  -1.000  -0.871   -0.00030000        
C   -3.177   0.541   0.000    0.03480000        
H   -3.154   1.194   0.870   -0.00250000        
H   -3.154   1.194  -0.870   -0.00250000        
C   -4.481  -0.256  -0.000   -0.08110000        
H   -4.550  -0.894   0.877    0.01600000        
H   -4.550  -0.894  -0.877    0.01600000        
H   -5.345   0.401  -0.000    0.01600000        

# c3 =   C
# hc =   H

#  8    c3   1.9080   0.1094
# 18    hc   1.4870   0.0157
#no atom types 2: total atoms 26

epsilon kcal
C       0.1094  3.81600
H       0.0157  2.97400
lennard epsilon geometric 12 6 x13 kcal all 0.5
12.0

coul o14 1/6
X X 7.0

#  7 c3 c3 303.1000   1.5350
# 18 c3 hc 337.3000   1.0920
#no pots 2: total bonds 25

harm bond kcal
C  C     606.200   1.5350 
C  H     674.600   1.0920 

#  6   c3 c3 c3  63.2100 110.6300
# 30   c3 c3 hc  46.3700 110.0500
# 12   hc c3 hc  39.4300 108.3500
#no pots 3: total angles 48

three bond kcal
C  C  C     126.420 110.6300 
C  C  H      92.740 110.0500 
C  H  H      78.860 108.3500 

#  5 c3 c3 c3 c3 1.0000   0.2000 180.0001   1.0000
#  5 c3 c3 c3 c3 2.0000   0.2500 180.0001   2.0000
#  5 c3 c3 c3 c3 3.0000   0.1800   0.0000   3.0000
# 26 c3 c3 c3 hc 3.0000   0.1600   0.0000   3.0000
# 32 hc c3 c3 hc 3.0000   0.1500   0.0000   3.0000
#no pots 5: total dihedrals 73

torsion bond kcal
C  C  C  C     0.2000    1.0000  180.0001
C  C  C  C     0.2500    2.0000  180.0001
C  C  C  C     0.1800    3.0000    0.0000
C  C  C  H     0.1600    3.0000    0.0000
H  C  C  H     0.1500    3.0000    0.0000

#no pots 0: total impropers 0

torsion improper kcal
#total GULP impropers 0
