opti conp prop phon comp
name quartz
cell
4.914730   4.914730   5.406570  90.000000  90.000000 120.000000 
fractional    3
Si   core  0.46820000   0.00000000   0.33333333    4.000000
O    core  0.41310000   0.26610000   0.21310000    0.869020
O    shel  0.43152156   0.26644546   0.20449196   -2.869020
space
152
species
Si    core    4.000000
O     core    0.869020
O     shel   -2.869020
buck
Si   core O    shel    1280.000000 0.320520   10.66158  0.000 12.000
buck
O    shel O    shel   22764.000000 0.149000   27.88000  0.000 12.000
spring
O       74.920000
three
Si   core O    shel O    shel   2.097240 109.470000  2.200  2.200  3.800
