opti conp mole
switch rfo gnorm 0.01

name calcite_104_0.0000


svectors
4.980183  -0.000000
4.980183  24.270662
sfractional region 1
C    core   0.421919   0.078081 -12.134661  1.34353899 1.00000 0.00000
O    core   0.327506   0.046167 -12.901128  1.01848700 1.00000 0.00000
O    shel   0.327287   0.046093 -12.902899 -2.1330000 1.00000 0.00000
O    core   0.263679   0.109994 -11.368193  1.01848700 1.00000 0.00000
O    shel   0.263313   0.110068 -11.366423 -2.1330000 1.00000 0.00000
O    core   0.674573   0.078081 -12.134661  1.01848700 1.00000 0.00000
O    shel   0.675156   0.078081 -12.134661 -2.1330000 1.00000 0.00000
O    core   0.709619   0.037727  -9.100994  1.01848700 1.00000 0.00000
O    shel   0.709035   0.037727  -9.100994 -2.1330000 1.00000 0.00000
C    core   0.962273   0.037727  -9.100994  1.34353899 1.00000 0.00000
O    core   1.120513   0.005814  -9.867462  1.01848700 1.00000 0.00000
O    shel   1.120879   0.005740  -9.869232 -2.1330000 1.00000 0.00000
O    core   1.056686   0.069641  -8.334527  1.01848700 1.00000 0.00000
O    shel   1.056904   0.069714  -8.332757 -2.1330000 1.00000 0.00000
Ca   core   0.838586   0.161414 -12.134660  2.00000000 1.00000 0.00000
Ca   core   0.919293   0.080707  -6.067328  2.00000000 1.00000 0.00000
Ca   core   0.671919   0.328081 -12.134660  2.00000000 1.00000 0.00000
C    core   0.795606   0.204394  -9.100994  1.34353899 1.00000 0.00000
O    core   0.701192   0.172480  -9.867462  1.01848700 1.00000 0.00000
O    shel   0.700974   0.172407  -9.869232 -2.1330000 1.00000 0.00000
O    core   0.637366   0.236307  -8.334528  1.01848700 1.00000 0.00000
O    shel   0.637000   0.236381  -8.332758 -2.1330000 1.00000 0.00000
O    core   1.048260   0.204394  -9.100995  1.01848700 1.00000 0.00000
O    shel   1.048843   0.204394  -9.100995 -2.1330000 1.00000 0.00000
C    core   0.255253   0.244747 -12.134660  1.34353899 1.00000 0.00000
O    core   0.349666   0.276661 -11.368192  1.01848700 1.00000 0.00000
O    shel   0.349884   0.276735 -11.366422 -2.1330000 1.00000 0.00000
O    core   0.002599   0.244747 -12.134659  1.01848700 1.00000 0.00000
O    shel   0.002015   0.244747 -12.134660 -2.1330000 1.00000 0.00000
O    core   0.413493   0.212834 -12.901127  1.01848700 1.00000 0.00000
O    shel   0.413858   0.212760 -12.902897 -2.1330000 1.00000 0.00000
Ca   core   0.459646   0.040353  -3.033665  2.00000000 1.00000 0.00000
O    core   0.083306   0.164040  -6.067328  1.01848700 1.00000 0.00000
O    shel   0.082722   0.164040  -6.067328 -2.1330000 1.00000 0.00000
C    core   0.335960   0.164040  -6.067328  1.34353899 1.00000 0.00000
O    core   0.494200   0.132127  -6.833797  1.01848700 1.00000 0.00000
O    shel   0.494566   0.132053  -6.835567 -2.1330000 1.00000 0.00000
O    core   0.430373   0.195954  -5.300861  1.01848700 1.00000 0.00000
O    shel   0.430591   0.196028  -5.299091 -2.1330000 1.00000 0.00000
O    core  -0.005828   0.379500 -12.901127  1.01848700 1.00000 0.00000
O    shel  -0.006046   0.379427 -12.902897 -2.1330000 1.00000 0.00000
C    core   0.088586   0.411414 -12.134659  1.34353899 1.00000 0.00000
O    core  -0.069655   0.443328 -11.368192  1.01848700 1.00000 0.00000
O    shel  -0.070020   0.443401 -11.366421 -2.1330000 1.00000 0.00000
O    core   0.341240   0.411414 -12.134659  1.01848700 1.00000 0.00000
O    shel   0.341823   0.411414 -12.134659 -2.1330000 1.00000 0.00000
Ca   core   0.212273   0.287727  -9.100994  2.00000000 1.00000 0.00000
Ca   core   0.378939   0.121060  -9.100994  2.00000000 1.00000 0.00000
C    core   0.921919   0.578081 -12.134659  1.34353899 1.00000 0.00000
O    core   1.016333   0.609994 -11.368191  1.01848700 1.00000 0.00000
O    shel   1.016551   0.610068 -11.366421 -2.1330000 1.00000 0.00000
O    core   1.080160   0.546167 -12.901126  1.01848700 1.00000 0.00000
O    shel   1.080525   0.546093 -12.902897 -2.1330000 1.00000 0.00000
O    core   0.669265   0.578081 -12.134659  1.01848700 1.00000 0.00000
O    shel   0.668682   0.578081 -12.134658 -2.1330000 1.00000 0.00000
Ca   core   0.338586   0.661414 -12.134660  2.00000000 1.00000 0.00000
Ca   core   0.505253   0.494747 -12.134660  2.00000000 1.00000 0.00000
C    core   0.628939   0.371061  -9.100995  1.34353899 1.00000 0.00000
O    core   0.723353   0.402974  -8.334527  1.01848700 1.00000 0.00000
O    shel   0.723571   0.403048  -8.332757 -2.1330000 1.00000 0.00000
O    core   0.376285   0.371061  -9.100994  1.01848700 1.00000 0.00000
O    shel   0.375702   0.371061  -9.100995 -2.1330000 1.00000 0.00000
O    core   0.787180   0.339147  -9.867462  1.01848700 1.00000 0.00000
O    shel   0.787545   0.339073  -9.869232 -2.1330000 1.00000 0.00000
Ca   core   0.292980   0.207020  -3.033664  2.00000000 1.00000 0.00000
Ca   core   0.045606   0.454394  -9.100995  2.00000000 1.00000 0.00000
C    core   0.876313   0.123687  -3.033665  1.34353899 1.00000 0.00000
O    core   0.781900   0.091773  -3.800132  1.01848700 1.00000 0.00000
O    shel   0.781682   0.091700  -3.801902 -2.1330000 1.00000 0.00000
O    core   1.128967   0.123687  -3.033665  1.01848700 1.00000 0.00000
O    shel   1.129551   0.123687  -3.033665 -2.1330000 1.00000 0.00000
O    core   0.718073   0.155600  -2.267197  1.01848700 1.00000 0.00000
O    shel   0.717707   0.155674  -2.265427 -2.1330000 1.00000 0.00000
C    core   0.169293   0.330707  -6.067330  1.34353899 1.00000 0.00000
O    core   0.074879   0.298793  -6.833797  1.01848700 1.00000 0.00000
O    shel   0.074661   0.298720  -6.835568 -2.1330000 1.00000 0.00000
O    core   0.011052   0.362621  -5.300863  1.01848700 1.00000 0.00000
O    shel   0.010687   0.362694  -5.299093 -2.1330000 1.00000 0.00000
O    core   0.421947   0.330707  -6.067330  1.01848700 1.00000 0.00000
O    shel   0.422530   0.330707  -6.067330 -2.1330000 1.00000 0.00000
O    core   0.456992   0.290353  -3.033664  1.01848700 1.00000 0.00000
O    shel   0.456409   0.290353  -3.033664 -2.1330000 1.00000 0.00000
C    core   0.709646   0.290353  -3.033664  1.34353899 1.00000 0.00000
O    core   0.867887   0.258440  -3.800132  1.01848700 1.00000 0.00000
O    shel   0.868252   0.258366  -3.801902 -2.1330000 1.00000 0.00000
O    core   0.804060   0.322267  -2.267197  1.01848700 1.00000 0.00000
O    shel   0.804278   0.322341  -2.265427 -2.1330000 1.00000 0.00000
O    core   0.367859   0.505814  -9.867462  1.01848700 1.00000 0.00000
O    shel   0.367641   0.505740  -9.869232 -2.1330000 1.00000 0.00000
C    core   0.462273   0.537727  -9.100994  1.34353899 1.00000 0.00000
O    core   0.304032   0.569641  -8.334527  1.01848700 1.00000 0.00000
O    shel   0.303667   0.569714  -8.332756 -2.1330000 1.00000 0.00000
O    core   0.714927   0.537727  -9.100994  1.01848700 1.00000 0.00000
O    shel   0.715510   0.537727  -9.100994 -2.1330000 1.00000 0.00000
Ca   core   0.585960   0.414040  -6.067329  2.00000000 1.00000 0.00000
Ca   core   0.752626   0.247374  -6.067330  2.00000000 1.00000 0.00000
Ca   core   0.171919   0.828081 -12.134659  2.00000000 1.00000 0.00000
Ca   core   0.712273   0.787727  -9.100995  2.00000000 1.00000 0.00000
C    core   0.755253   0.744747 -12.134660  1.34353899 1.00000 0.00000
O    core   0.660839   0.712834 -12.901127  1.01848700 1.00000 0.00000
O    shel   0.660621   0.712760 -12.902897 -2.1330000 1.00000 0.00000
O    core   1.007906   0.744747 -12.134660  1.01848700 1.00000 0.00000
O    shel   1.008490   0.744747 -12.134660 -2.1330000 1.00000 0.00000
O    core   0.597012   0.776661 -11.368192  1.01848700 1.00000 0.00000
O    shel   0.596647   0.776735 -11.366422 -2.1330000 1.00000 0.00000
C    core   0.295606   0.704394  -9.100994  1.34353899 1.00000 0.00000
O    core   0.390020   0.736307  -8.334526  1.01848700 1.00000 0.00000
O    shel   0.390238   0.736381  -8.332756 -2.1330000 1.00000 0.00000
O    core   0.453847   0.672480  -9.867461  1.01848700 1.00000 0.00000
O    shel   0.454212   0.672407  -9.869232 -2.1330000 1.00000 0.00000
O    core   0.042952   0.704394  -9.100994  1.01848700 1.00000 0.00000
O    shel   0.042369   0.704394  -9.100993 -2.1330000 1.00000 0.00000
O    core   0.335932   0.911414 -12.134659  1.01848700 1.00000 0.00000
O    shel   0.335348   0.911414 -12.134659 -2.1330000 1.00000 0.00000
C    core   0.588586   0.911414 -12.134659  1.34353899 1.00000 0.00000
O    core   0.746826   0.879500 -12.901127  1.01848700 1.00000 0.00000
O    shel   0.747192   0.879427 -12.902897 -2.1330000 1.00000 0.00000
O    core   0.682999   0.943328 -11.368192  1.01848700 1.00000 0.00000
O    shel   0.683218   0.943401 -11.366422 -2.1330000 1.00000 0.00000
Ca   core   0.878939   0.621060  -9.100994  2.00000000 1.00000 0.00000
Ca   core   0.419293   0.580707  -6.067329  2.00000000 1.00000 0.00000
C    core   0.542980   0.457020  -3.033664  1.34353899 1.00000 0.00000
O    core   0.448566   0.425107  -3.800132  1.01848700 1.00000 0.00000
O    shel   0.448348   0.425033  -3.801902 -2.1330000 1.00000 0.00000
O    core   0.384739   0.488934  -2.267197  1.01848700 1.00000 0.00000
O    shel   0.384374   0.489007  -2.265427 -2.1330000 1.00000 0.00000
O    core   0.795634   0.457020  -3.033665  1.01848700 1.00000 0.00000
O    shel   0.796217   0.457020  -3.033665 -2.1330000 1.00000 0.00000
O    core   0.741546   0.632127  -6.833797  1.01848700 1.00000 0.00000
O    shel   0.741328   0.632053  -6.835567 -2.1330000 1.00000 0.00000
C    core   0.835960   0.664040  -6.067329  1.34353899 1.00000 0.00000
O    core   0.677719   0.695954  -5.300861  1.01848700 1.00000 0.00000
O    shel   0.677354   0.696028  -5.299091 -2.1330000 1.00000 0.00000
O    core   1.088614   0.664040  -6.067329  1.01848700 1.00000 0.00000
O    shel   1.089197   0.664040  -6.067329 -2.1330000 1.00000 0.00000
Ca   core   0.959646   0.540353  -3.033664  2.00000000 1.00000 0.00000
C    core   0.002626   0.497374  -6.067329  1.34353899 1.00000 0.00000
O    core   0.097040   0.529287  -5.300861  1.01848700 1.00000 0.00000
O    shel   0.097258   0.529361  -5.299091 -2.1330000 1.00000 0.00000
O    core  -0.250028   0.497374  -6.067329  1.01848700 1.00000 0.00000
O    shel  -0.250611   0.497374  -6.067329 -2.1330000 1.00000 0.00000
O    core   0.160867   0.465460  -6.833797  1.01848700 1.00000 0.00000
O    shel   0.161232   0.465386  -6.835567 -2.1330000 1.00000 0.00000
Ca   core   0.126313   0.373687  -3.033664  2.00000000 1.00000 0.00000
Ca   core   0.545606   0.954394  -9.100992  2.00000000 1.00000 0.00000
C    core   0.669293   0.830707  -6.067327  1.34353899 1.00000 0.00000
O    core   0.763706   0.862621  -5.300859  1.01848700 1.00000 0.00000
O    shel   0.763924   0.862694  -5.299089 -2.1330000 1.00000 0.00000
O    core   0.827533   0.798793  -6.833795  1.01848700 1.00000 0.00000
O    shel   0.827899   0.798720  -6.835566 -2.1330000 1.00000 0.00000
O    core   0.416639   0.830707  -6.067327  1.01848700 1.00000 0.00000
O    shel   0.416055   0.830707  -6.067327 -2.1330000 1.00000 0.00000
Ca   core   0.792980   0.707020  -3.033665  2.00000000 1.00000 0.00000
Ca   core   0.085960   0.914040  -6.067328  2.00000000 1.00000 0.00000
C    core   0.128939   0.871060  -9.100993  1.34353899 1.00000 0.00000
O    core   0.034526   0.839147  -9.867460  1.01848700 1.00000 0.00000
O    shel   0.034308   0.839073  -9.869230 -2.1330000 1.00000 0.00000
O    core   0.381593   0.871060  -9.100993  1.01848700 1.00000 0.00000
O    shel   0.382177   0.871060  -9.100993 -2.1330000 1.00000 0.00000
O    core  -0.029301   0.902974  -8.334525  1.01848700 1.00000 0.00000
O    shel  -0.029666   0.903048  -8.332755 -2.1330000 1.00000 0.00000
Ca   core   0.005253   0.994747 -12.134659  2.00000000 1.00000 0.00000
Ca   core   0.252626   0.747374  -6.067329  2.00000000 1.00000 0.00000
C    core   0.376313   0.623687  -3.033664  1.34353899 1.00000 0.00000
O    core   0.470727   0.655600  -2.267197  1.01848700 1.00000 0.00000
O    shel   0.470945   0.655674  -2.265427 -2.1330000 1.00000 0.00000
O    core   0.123659   0.623687  -3.033664  1.01848700 1.00000 0.00000
O    shel   0.123076   0.623687  -3.033664 -2.1330000 1.00000 0.00000
O    core   0.534554   0.591773  -3.800132  1.01848700 1.00000 0.00000
O    shel   0.534919   0.591700  -3.801902 -2.1330000 1.00000 0.00000
O    core   0.115233   0.758440  -3.800132  1.01848700 1.00000 0.00000
O    shel   0.115015   0.758366  -3.801902 -2.1330000 1.00000 0.00000
C    core   0.209646   0.790353  -3.033664  1.34353899 1.00000 0.00000
O    core   0.051406   0.822267  -2.267196  1.01848700 1.00000 0.00000
O    shel   0.051040   0.822341  -2.265426 -2.1330000 1.00000 0.00000
O    core   0.462300   0.790353  -3.033664  1.01848700 1.00000 0.00000
O    shel   0.462884   0.790353  -3.033664 -2.1330000 1.00000 0.00000
C    core   0.502626   0.997374  -6.067328  1.34353899 1.00000 0.00000
O    core   0.408213   0.965460  -6.833796  1.01848700 1.00000 0.00000
O    shel   0.407995   0.965387  -6.835566 -2.1330000 1.00000 0.00000
O    core   0.755280   0.997374  -6.067328  1.01848700 1.00000 0.00000
O    shel   0.755864   0.997374  -6.067328 -2.1330000 1.00000 0.00000
O    core   0.344386   1.029287  -5.300860  1.01848700 1.00000 0.00000
O    shel   0.344020   1.029361  -5.299090 -2.1330000 1.00000 0.00000
C    core   0.042980   0.957020  -3.033663  1.34353899 1.00000 0.00000
O    core   0.137393   0.988934  -2.267195  1.01848700 1.00000 0.00000
O    shel   0.137611   0.989007  -2.265425 -2.1330000 1.00000 0.00000
O    core   0.201220   0.925107  -3.800130  1.01848700 1.00000 0.00000
O    shel   0.201586   0.925033  -3.801901 -2.1330000 1.00000 0.00000
O    core  -0.209674   0.957020  -3.033663  1.01848700 1.00000 0.00000
O    shel  -0.210258   0.957020  -3.033662 -2.1330000 1.00000 0.00000
Ca   core   0.626313   0.873687  -3.033664  2.00000000 1.00000 0.00000

dhkl 3.033665

sbulkenergy -1023.043030

elements
covalent 25  0.0000
covalent 26  0.0000
covalent 27  0.0000
covalent 28  0.0000
covalent 30  0.0000
covalent 48  0.0000
end

species
Cd     core    2.000000
Mn     core    2.000000
Mg     core    2.000000
Zn     core    2.000000
Ni     core    2.000000
Co     core    2.000000
Fe     core    2.000000
Ca     core    2.000000
C      core    1.343539
O      core    1.018487
O      shel   -2.133000
end

buck intra     
O     core O     core  4030.30000     0.245497 0.0000000      0.000  2.500

buck     
Ca    core O     shel  2154.06000     0.289118 0.0000000      0.000 10.000

buck inter     
O     shel O     shel  64727.5050     0.198914  21.84357      0.000 15.000

buck     
Cd    core O     shel  4329.81000     0.256300 0.0000000      0.000 10.000

buck     
Mg    core O     shel  1039.58460     0.289329 0.0000000      0.000 10.000

buck     
Co    core O     shel  1095.59850     0.286300 0.0000000      0.000 10.000

buck     
Fe    core O     shel  2152.98610     0.265068 0.0000000      0.000 10.000

buck     
Mn    core O     shel  2000.93570     0.272681 0.0000000      0.000 10.000

buck     
Ni    core O     shel  1634.46190     0.266612 0.0000000      0.000 10.000

buck     
Zn    core O     shel  1029.39000     0.289100 0.0000000      0.000 10.000

morse intra bond
C     core O     core 5.0000000     2.5228      1.19820  0.0000

spring
O      52.739130     10000.000    

three bond intra
C     core O     core O     core 1.7765     120.00    

outofplane bond intra
C     cor O     cor O     cor O     cor 8.8279    


dump calcite_104_0.0000.res
