opti conv molecule
svectors
5.55180905       0.00000000 0.0
0.00000000       5.55180905 0.0
cartesian
  C  core        2.775904526099      0.000000000000     -1.669711150100   0.380000
  C  core        0.000000000000      2.775904526099     -3.026933681000   0.380000
  C  core        2.775904526099      0.000000000000     -6.366355981300   0.380000
  C  core        0.000000000000      2.775904526099     -7.723578512200   0.380000
  C  core        2.775904526099      0.000000000000    -11.063000812500   0.380000
  C  core        0.000000000000      2.775904526099    -12.420223343400   0.380000
  C  core        2.775904526099      0.000000000000    -15.759645643700   0.380000
  C  core        0.000000000000      2.775904526099    -17.116868174600   0.380000
  C  core        2.775904526099      0.000000000000    -20.456290474900   0.380000
  C  core        0.000000000000      2.775904526099    -21.813513005800   0.380000
  O  core        0.000000000000      2.775904526099     -1.795871304800  -0.380000
  O  core        2.775904526099      0.000000000000     -2.900773526401  -0.380000
  O  core        0.000000000000      2.775904526099     -6.492516136000  -0.380000
  O  core        2.775904526099      0.000000000000     -7.597418357601  -0.380000
  O  core        0.000000000000      2.775904526099    -11.189160967200  -0.380000
  O  core        2.775904526099      0.000000000000    -12.294063188801  -0.380000
  O  core        0.000000000000      2.775904526099    -15.885805798400  -0.380000
  O  core        2.775904526099      0.000000000000    -16.990708020001  -0.380000
  O  core        0.000000000000      2.775904526099    -20.582450629600  -0.380000
  O  core        2.775904526099      0.000000000000    -21.687352851201  -0.380000
  N  core        1.982484018799      0.793420507300     -0.988886363101  -0.830000
  N  core        3.569325033301     -0.793420507300     -0.988886363101  -0.830000
  N  core       -0.793420507300      1.982484018799     -3.707758468100  -0.830000
  N  core        0.793420507300      3.569325033301     -3.707758468100  -0.830000
  N  core        1.982484018799      0.793420507300     -5.685531194301  -0.830000
  N  core        3.569325033301     -0.793420507300     -5.685531194301  -0.830000
  N  core       -0.793420507300      1.982484018799     -8.404403299300  -0.830000
  N  core        0.793420507300      3.569325033301     -8.404403299300  -0.830000
  N  core        1.982484018799      0.793420507300    -10.382176025501  -0.830000
  N  core        3.569325033301     -0.793420507300    -10.382176025501  -0.830000
  N  core       -0.793420507300      1.982484018799    -13.101048130500  -0.830000
  N  core        0.793420507300      3.569325033301    -13.101048130500  -0.830000
  N  core        1.982484018799      0.793420507300    -15.078820856701  -0.830000
  N  core        3.569325033301     -0.793420507300    -15.078820856701  -0.830000
  N  core       -0.793420507300      1.982484018799    -17.797692961700  -0.830000
  N  core        0.793420507300      3.569325033301    -17.797692961700  -0.830000
  N  core        1.982484018799      0.793420507300    -19.775465687901  -0.830000
  N  core        3.569325033301     -0.793420507300    -19.775465687901  -0.830000
  N  core       -0.793420507300      1.982484018799    -22.494337792900  -0.830000
  N  core        0.793420507300      3.569325033301    -22.494337792900  -0.830000
  H  core        2.010632339399      0.765272186700      0.046851507801   0.415000
  H  core        3.541176712701     -0.765272186700      0.046851507801   0.415000
  H  core        1.323350908100      1.452553617901     -1.441096391100   0.415000
  H  core        4.228458144000     -1.452553617901     -1.441096391100   0.415000
  H  core       -1.452553617901      1.323350908100     -3.255548440100   0.415000
  H  core        1.452553617901      4.228458144000     -3.255548440100   0.415000
  H  core        2.010632339399      0.765272186700     -4.649793323399   0.415000
  H  core        3.541176712701     -0.765272186700     -4.649793323399   0.415000
  H  core       -0.765272186700      2.010632339399     -4.743496338899   0.415000
  H  core        0.765272186700      3.541176712701     -4.743496338899   0.415000
  H  core        1.323350908100      1.452553617901     -6.137741222300   0.415000
  H  core        4.228458144000     -1.452553617901     -6.137741222300   0.415000
  H  core       -1.452553617901      1.323350908100     -7.952193271300   0.415000
  H  core        1.452553617901      4.228458144000     -7.952193271300   0.415000
  H  core        2.010632339399      0.765272186700     -9.346438154599   0.415000
  H  core        3.541176712701     -0.765272186700     -9.346438154599   0.415000
  H  core       -0.765272186700      2.010632339399     -9.440141170099   0.415000
  H  core        0.765272186700      3.541176712701     -9.440141170099   0.415000
  H  core        1.323350908100      1.452553617901    -10.834386053500   0.415000
  H  core        4.228458144000     -1.452553617901    -10.834386053500   0.415000
  H  core       -1.452553617901      1.323350908100    -12.648838102500   0.415000
  H  core        1.452553617901      4.228458144000    -12.648838102500   0.415000
  H  core        2.010632339399      0.765272186700    -14.043082985799   0.415000
  H  core        3.541176712701     -0.765272186700    -14.043082985799   0.415000
  H  core       -0.765272186700      2.010632339399    -14.136786001299   0.415000
  H  core        0.765272186700      3.541176712701    -14.136786001299   0.415000
  H  core        1.323350908100      1.452553617901    -15.531030884700   0.415000
  H  core        4.228458144000     -1.452553617901    -15.531030884700   0.415000
  H  core       -1.452553617901      1.323350908100    -17.345482933700   0.415000
  H  core        1.452553617901      4.228458144000    -17.345482933700   0.415000
  H  core        2.010632339399      0.765272186700    -18.739727816999   0.415000
  H  core        3.541176712701     -0.765272186700    -18.739727816999   0.415000
  H  core       -0.765272186700      2.010632339399    -18.833430832499   0.415000
  H  core        0.765272186700      3.541176712701    -18.833430832499   0.415000
  H  core        1.323350908100      1.452553617901    -20.227675715900   0.415000
  H  core        4.228458144000     -1.452553617901    -20.227675715900   0.415000
  H  core       -1.452553617901      1.323350908100    -22.042127764900   0.415000
  H  core        1.452553617901      4.228458144000    -22.042127764900   0.415000
  H  core       -0.765272186700      2.010632339399    -23.530075663699   0.415000
  H  core        0.765272186700      3.541176712701    -23.530075663699   0.415000
  C  core        2.775904526099      0.000000000000    -25.152935306100   0.380000
  C  core        0.000000000000      2.775904526099    -26.510157837000   0.380000
  C  core        2.775904526099      0.000000000000    -29.849580137300   0.380000
  C  core        0.000000000000      2.775904526099    -31.206802668200   0.380000
  C  core        2.775904526099      0.000000000000    -34.546224968500   0.380000
  C  core        0.000000000000      2.775904526099    -35.903447499400   0.380000
  C  core        2.775904526099      0.000000000000    -39.242869799700   0.380000
  C  core        0.000000000000      2.775904526099    -40.600092330600   0.380000
  C  core        2.775904526099      0.000000000000    -43.939514630900   0.380000
  C  core        0.000000000000      2.775904526099    -45.296737161800   0.380000
  O  core        0.000000000000      2.775904526099    -25.279095460800  -0.380000
  O  core        2.775904526099      0.000000000000    -26.383997682401  -0.380000
  O  core        0.000000000000      2.775904526099    -29.975740292000  -0.380000
  O  core        2.775904526099      0.000000000000    -31.080642513601  -0.380000
  O  core        0.000000000000      2.775904526099    -34.672385123200  -0.380000
  O  core        2.775904526099      0.000000000000    -35.777287344801  -0.380000
  O  core        0.000000000000      2.775904526099    -39.369029954400  -0.380000
  O  core        2.775904526099      0.000000000000    -40.473932176001  -0.380000
  O  core        0.000000000000      2.775904526099    -44.065674785600  -0.380000
  O  core        2.775904526099      0.000000000000    -45.170577007201  -0.380000
  N  core        1.982484018799      0.793420507300    -24.472110519101  -0.830000
  N  core        3.569325033301     -0.793420507300    -24.472110519101  -0.830000
  N  core       -0.793420507300      1.982484018799    -27.190982624100  -0.830000
  N  core        0.793420507300      3.569325033301    -27.190982624100  -0.830000
  N  core        1.982484018799      0.793420507300    -29.168755350301  -0.830000
  N  core        3.569325033301     -0.793420507300    -29.168755350301  -0.830000
  N  core       -0.793420507300      1.982484018799    -31.887627455300  -0.830000
  N  core        0.793420507300      3.569325033301    -31.887627455300  -0.830000
  N  core        1.982484018799      0.793420507300    -33.865400181501  -0.830000
  N  core        3.569325033301     -0.793420507300    -33.865400181501  -0.830000
  N  core       -0.793420507300      1.982484018799    -36.584272286500  -0.830000
  N  core        0.793420507300      3.569325033301    -36.584272286500  -0.830000
  N  core        1.982484018799      0.793420507300    -38.562045012701  -0.830000
  N  core        3.569325033301     -0.793420507300    -38.562045012701  -0.830000
  N  core       -0.793420507300      1.982484018799    -41.280917117700  -0.830000
  N  core        0.793420507300      3.569325033301    -41.280917117700  -0.830000
  N  core        1.982484018799      0.793420507300    -43.258689843901  -0.830000
  N  core        3.569325033301     -0.793420507300    -43.258689843901  -0.830000
  N  core       -0.793420507300      1.982484018799    -45.977561948900  -0.830000
  N  core        0.793420507300      3.569325033301    -45.977561948900  -0.830000
  H  core        2.010632339399      0.765272186700    -23.436372648199   0.415000
  H  core        3.541176712701     -0.765272186700    -23.436372648199   0.415000
  H  core        1.323350908100      1.452553617901    -24.924320547100   0.415000
  H  core        4.228458144000     -1.452553617901    -24.924320547100   0.415000
  H  core       -1.452553617901      1.323350908100    -26.738772596100   0.415000
  H  core        1.452553617901      4.228458144000    -26.738772596100   0.415000
  H  core        2.010632339399      0.765272186700    -28.133017479399   0.415000
  H  core        3.541176712701     -0.765272186700    -28.133017479399   0.415000
  H  core       -0.765272186700      2.010632339399    -28.226720494899   0.415000
  H  core        0.765272186700      3.541176712701    -28.226720494899   0.415000
  H  core        1.323350908100      1.452553617901    -29.620965378300   0.415000
  H  core        4.228458144000     -1.452553617901    -29.620965378300   0.415000
  H  core       -1.452553617901      1.323350908100    -31.435417427300   0.415000
  H  core        1.452553617901      4.228458144000    -31.435417427300   0.415000
  H  core        2.010632339399      0.765272186700    -32.829662310599   0.415000
  H  core        3.541176712701     -0.765272186700    -32.829662310599   0.415000
  H  core       -0.765272186700      2.010632339399    -32.923365326099   0.415000
  H  core        0.765272186700      3.541176712701    -32.923365326099   0.415000
  H  core        1.323350908100      1.452553617901    -34.317610209500   0.415000
  H  core        4.228458144000     -1.452553617901    -34.317610209500   0.415000
  H  core       -1.452553617901      1.323350908100    -36.132062258500   0.415000
  H  core        1.452553617901      4.228458144000    -36.132062258500   0.415000
  H  core        2.010632339399      0.765272186700    -37.526307141799   0.415000
  H  core        3.541176712701     -0.765272186700    -37.526307141799   0.415000
  H  core       -0.765272186700      2.010632339399    -37.620010157299   0.415000
  H  core        0.765272186700      3.541176712701    -37.620010157299   0.415000
  H  core        1.323350908100      1.452553617901    -39.014255040700   0.415000
  H  core        4.228458144000     -1.452553617901    -39.014255040700   0.415000
  H  core       -1.452553617901      1.323350908100    -40.828707089700   0.415000
  H  core        1.452553617901      4.228458144000    -40.828707089700   0.415000
  H  core        2.010632339399      0.765272186700    -42.222951972999   0.415000
  H  core        3.541176712701     -0.765272186700    -42.222951972999   0.415000
  H  core       -0.765272186700      2.010632339399    -42.316654988499   0.415000
  H  core        0.765272186700      3.541176712701    -42.316654988499   0.415000
  H  core        1.323350908100      1.452553617901    -43.710899871900   0.415000
  H  core        4.228458144000     -1.452553617901    -43.710899871900   0.415000
  H  core       -1.452553617901      1.323350908100    -45.525351920900   0.415000
  H  core        1.452553617901      4.228458144000    -45.525351920900   0.415000
  H  core       -0.765272186700      2.010632339399    -47.013299819699   0.415000
  H  core        0.765272186700      3.541176712701    -47.013299819699   0.415000
sregion2 81
sbulkenergy -310.3616137
morse bond
C    core O    core      6.288000   2.060000  1.23000
morse bond
C    core N    core      4.206000   2.000000  1.32000
morse bond
H    core N    core      3.816000   2.280000  1.02600
lennard 12  6 inter
C    core O    core   39031.570000      35.266000 18.0
lennard 12  6 inter
C    core N    core  112494.667000      55.387000 18.0
lennard 12  6 inter
O    core O    core   11833.864000      21.633000 18.0
lennard 12  6 inter
N    core O    core   34106.919000      33.977000 18.0
lennard 12  6 inter
N    core N    core   98301.108000      53.362000 18.0
lennard 12  6 inter
C    core C    core  128737.614000      57.488000 18.0
three bond
C    core N    core O    core   5.897000 121.000000
three bond
N    core H    core C    core   3.252000 120.000000
three bond
N    core H    core H    core   2.862000 120.000000
three bond
C    core N    core N    core   8.846000 118.000000
torsion bond
O    cor C    cor N    cor H    cor   0.260200  -2
torsion bond
N    cor C    cor N    cor H    cor   0.002170  -2
torsion
O    cor C    cor N    cor N    cor   0.434000  -2  1.60  1.60  3.00  0.00
dump every urea_001_cut1.res
